# vtk DataFile Version 5.1
vtk output
ASCII
DATASET UNSTRUCTURED_GRID
POINTS 7351 float
-0.0300345 -0.0243964 1.51765 -0.030127 -0.0244855 1.5175 -0.0301825 -0.0243007 1.51756 
-0.0300969 -0.0242179 1.51773 -0.0299536 -0.0243185 1.51782 -0.0377559 -0.0278113 1.51624 
-0.0377189 -0.027993 1.51633 -0.0378309 -0.0278517 1.51639 -0.0376835 -0.0277319 1.51609 
-0.0376317 -0.0279143 1.51615 -0.0374176 -0.0235686 1.51956 -0.0375045 -0.0237192 1.51964 
-0.0373727 -0.0236077 1.51975 -0.0374657 -0.0235187 1.51936 -0.0375575 -0.0236691 1.51945 
-0.0365594 -0.0282952 1.52136 -0.0367483 -0.0282359 1.52131 -0.0366644 -0.0283998 1.52124 
-0.036475 -0.0284602 1.52129 -0.0363695 -0.0283519 1.52141 -0.0359432 -0.0286553 1.51539 
-0.0357419 -0.0286954 1.51536 -0.0358536 -0.0288149 1.51548 -0.0360264 -0.0284953 1.51531 
-0.0358285 -0.0285383 1.51527 -0.0360786 -0.0239246 1.52206 -0.0359909 -0.0240115 1.52222 
-0.0359495 -0.0238212 1.52217 -0.0360362 -0.0237313 1.52201 -0.0361623 -0.0238372 1.52191 
-0.03322 -0.0292732 1.51642 -0.033373 -0.0293459 1.51634 -0.0333103 -0.0291914 1.51622 
-0.0358585 -0.0280761 1.52181 -0.0360429 -0.0280175 1.52177 -0.0359671 -0.028192 1.52169 
-0.0357809 -0.0282381 1.52174 -0.0356736 -0.0281286 1.52186 -0.0352841 -0.0274905 1.52267 
-0.0353546 -0.0275603 1.5225 -0.035208 -0.0276666 1.52259 -0.0353508 -0.0273109 1.52272 
-0.0354221 -0.0273884 1.52256 -0.0352763 -0.027233 1.52289 -0.0353399 -0.0270374 1.52296 
-0.0354157 -0.0271211 1.52279 -0.0352039 -0.0274224 1.52284 -0.0371695 -0.0294132 1.51711 
-0.0372178 -0.0294612 1.51731 -0.0373351 -0.0293303 1.5172 -0.0370023 -0.029489 1.51702 
-0.0370567 -0.0295472 1.51722 -0.0316846 -0.0285403 1.51745 -0.0317332 -0.028483 1.51728 
-0.0315989 -0.0283977 1.51737 -0.0317858 -0.0286811 1.51754 -0.031827 -0.0286279 1.51737 
-0.033517 -0.0266223 1.52443 -0.0335644 -0.0265013 1.52432 -0.0336167 -0.0266852 1.52435 
-0.0335358 -0.0267736 1.52451 -0.0333845 -0.026648 1.52461 -0.031012 -0.0238925 1.52275 
-0.0310451 -0.0240158 1.52291 -0.0309999 -0.0240896 1.52272 -0.0309812 -0.0239327 1.52256 
-0.0310083 -0.0237093 1.52267 -0.0295428 -0.0268807 1.51863 -0.029615 -0.0268606 1.51848 
-0.0295113 -0.0267291 1.51849 -0.0296312 -0.0270485 1.51873 -0.0296852 -0.0269956 1.51855 
-0.032651 -0.026871 1.51503 -0.0327106 -0.0270561 1.51508 -0.0328169 -0.0269512 1.51495 
-0.0325028 -0.026783 1.51511 -0.0325467 -0.026977 1.51516 -0.0332306 -0.0282145 1.51535 
-0.0331591 -0.0280417 1.51528 -0.0330731 -0.0281349 1.51543 -0.0333983 -0.0282822 1.51528 
-0.0333266 -0.0281131 1.5152 -0.0344261 -0.0278272 1.52326 -0.034327 -0.0277434 1.5234 
-0.0345063 -0.0276767 1.52335 -0.0346045 -0.0277673 1.5232 -0.0345292 -0.0278974 1.52309 
-0.0360958 -0.0227264 1.52135 -0.0360169 -0.0228084 1.52151 -0.0359754 -0.0226212 1.52145 
-0.0360568 -0.0225405 1.5213 -0.0361713 -0.0226533 1.52118 -0.0378881 -0.0235647 1.51782 
-0.0378968 -0.0235339 1.518 -0.0377871 -0.0234288 1.5179 -0.0379778 -0.0237101 1.51773 
-0.0379911 -0.0236765 1.51793 -0.0375328 -0.0232113 1.51768 -0.0376607 -0.0233173 1.51778 
-0.037557 -0.0232022 1.51789 -0.0375118 -0.0232259 1.51747 -0.0376452 -0.0233443 1.51756 
-0.0376722 -0.0289111 1.5171 -0.0377485 -0.0287461 1.51701 -0.0376282 -0.0288654 1.5169 
-0.0376974 -0.0289463 1.51731 -0.0377816 -0.0287842 1.51722 -0.0378989 -0.0262705 1.51541 
-0.0379579 -0.0263427 1.51558 -0.0380038 -0.0261433 1.51553 -0.0379451 -0.026071 1.51535 
-0.0378301 -0.0261893 1.51524 -0.0368152 -0.0236805 1.51478 -0.036971 -0.0237609 1.51487 
-0.0368969 -0.0235926 1.51495 -0.0367431 -0.0235071 1.51487 -0.0366486 -0.0236032 1.51471 
-0.0370486 -0.0236765 1.51504 -0.0369687 -0.0235107 1.51512 -0.0371233 -0.0238487 1.51496 
-0.0309755 -0.0224406 1.52084 -0.0308183 -0.0225426 1.52077 -0.0309151 -0.0223912 1.52066 
-0.0310704 -0.0224865 1.52099 -0.0309188 -0.0226185 1.52095 -0.0324282 -0.0212865 1.52078 
-0.0324195 -0.0212819 1.52055 -0.0325619 -0.0211233 1.52068 -0.0325437 -0.0211811 1.52091 
-0.0324285 -0.021351 1.52099 -0.0298979 -0.0240413 1.51828 -0.0298531 -0.0240061 1.51848 
-0.0297703 -0.0241553 1.51839 -0.029816 -0.024196 1.5182 -0.0299545 -0.0240862 1.51809 
-0.0372884 -0.0248772 1.5211 -0.0372351 -0.0246791 1.52106 -0.0373608 -0.024792 1.52094 
-0.0372028 -0.0249786 1.52127 -0.0371589 -0.0247647 1.52121 -0.0329042 -0.0287751 1.51621 
-0.03298 -0.0289539 1.51632 -0.0330602 -0.0288883 1.51617 -0.0330016 -0.028705 1.51604 
-0.0328544 -0.0285888 1.51607 -0.0326411 -0.0213008 1.52132 -0.0327337 -0.0213818 1.52149 
-0.0325782 -0.0214659 1.5214 -0.0327137 -0.0211289 1.52123 -0.0327978 -0.0212131 1.52142 
-0.0375178 -0.0285343 1.51646 -0.0374639 -0.0287101 1.51653 -0.0376114 -0.0286236 1.51664 
-0.0374294 -0.0284425 1.5163 -0.0373524 -0.0286193 1.51635 -0.0365693 -0.0236776 1.52135 
-0.0364744 -0.0237649 1.5215 -0.036434 -0.0235739 1.52146 -0.0365247 -0.0234874 1.52131 
-0.0366612 -0.0235927 1.5212 -0.0351191 -0.028296 1.52204 -0.0349405 -0.0283519 1.5221 
-0.0350311 -0.0282124 1.52218 -0.0348544 -0.028265 1.52226 -0.0349461 -0.0281261 1.52235 
-0.0312997 -0.0254062 1.52343 -0.0314021 -0.0255065 1.52355 -0.031227 -0.0255846 1.52349 
-0.0313137 -0.02568 1.52363 -0.0311458 -0.0257499 1.52356 -0.0313523 -0.0252128 1.52338 
-0.0311847 -0.0253111 1.5233 -0.0315166 -0.0251241 1.52345 -0.0314699 -0.0253176 1.5235 
-0.0305294 -0.0270869 1.51746 -0.0304599 -0.0271618 1.51762 -0.0305956 -0.0272546 1.51753 
-0.0305323 -0.0273369 1.51769 -0.0306912 -0.0274278 1.51755 -0.0320674 -0.0264972 1.51538 
-0.0320275 -0.0263095 1.51535 -0.0319136 -0.026401 1.51549 -0.031876 -0.0261958 1.51545 
-0.0317648 -0.0263016 1.51559 -0.0319438 -0.0281892 1.5166 -0.0318487 -0.028273 1.51681 
-0.0320343 -0.0283734 1.51668 -0.0317508 -0.028063 1.51672 -0.0318374 -0.0279977 1.51655 
-0.0367419 -0.0289779 1.51617 -0.0369064 -0.0288291 1.51616 -0.036797 -0.0287746 1.516 
-0.036922 -0.0287081 1.51605 -0.036882 -0.0286214 1.51594 -0.034816 -0.0275184 1.52323 
-0.0347436 -0.0276685 1.52318 -0.0346667 -0.0276 1.5233 -0.0348933 -0.0273459 1.52326 
-0.034731 -0.0274245 1.52335 -0.0349815 -0.0274382 1.52312 -0.0350564 -0.0272533 1.52317 
-0.0362591 -0.0232813 1.52151 -0.0362034 -0.0230954 1.52146 -0.0363396 -0.023198 1.52136 
-0.0362792 -0.0230183 1.52129 -0.0364125 -0.0231267 1.52119 -0.0358105 -0.0227944 1.52177 
-0.0357244 -0.0228806 1.52193 -0.0356703 -0.0227033 1.52188 -0.0355756 -0.0227873 1.52203 
-0.0355183 -0.0226069 1.52197 -0.0353197 -0.0227824 1.52227 -0.0351234 -0.0226607 1.52236 
-0.0352495 -0.0225944 1.52221 -0.0350782 -0.0224937 1.52229 -0.0352076 -0.0224247 1.52214 
-0.0357163 -0.0267513 1.52264 -0.0356312 -0.0266614 1.52279 -0.0357568 -0.0265583 1.52269 
-0.0356671 -0.0269398 1.52259 -0.0355903 -0.0268554 1.52274 -0.0371589 -0.0267829 1.51487 
-0.0369995 -0.0268595 1.51481 -0.0371137 -0.0270027 1.51496 -0.0370541 -0.0266712 1.51475 
-0.0372624 -0.0265556 1.51484 -0.0376903 -0.0286952 1.51682 -0.0378137 -0.0285735 1.51694 
-0.0377505 -0.0285189 1.51675 -0.0377929 -0.0273597 1.516 -0.0378379 -0.0271716 1.51595 
-0.0377149 -0.0272921 1.51584 -0.0378615 -0.0274345 1.51616 -0.037902 -0.0272402 1.51611 
-0.0374381 -0.0244921 1.5149 -0.0373874 -0.0243026 1.51494 -0.0372888 -0.0243978 1.5148 
-0.0372451 -0.0242045 1.51484 -0.0371352 -0.0243062 1.5147 -0.0324275 -0.0217818 1.52158 
-0.0325874 -0.0216989 1.52166 -0.0325005 -0.0218423 1.52177 -0.0325086 -0.0216278 1.52149 
-0.0323534 -0.0217149 1.5214 -0.0328371 -0.0216918 1.52191 -0.032904 -0.0217573 1.52208 
-0.0327237 -0.0218107 1.52203 -0.0329221 -0.0215523 1.5218 -0.0330116 -0.0216357 1.52196 
-0.0329889 -0.0213949 1.52172 -0.0328218 -0.021473 1.52165 -0.0328896 -0.0213005 1.52157 
-0.0372955 -0.0285479 1.52064 -0.0372216 -0.0284648 1.5208 -0.0373771 -0.0283717 1.52071 
-0.0371339 -0.0286374 1.52073 -0.0372076 -0.0287132 1.52056 -0.037447 -0.0281888 1.52077 
-0.0375107 -0.0282638 1.5206 -0.0374996 -0.028 1.52083 -0.0375696 -0.028073 1.52066 
-0.0345855 -0.0290386 1.5155 -0.0344893 -0.0289024 1.5154 -0.0343679 -0.0290197 1.51553 
-0.034775 -0.0290491 1.5155 -0.034693 -0.0289221 1.51539 -0.0351266 -0.0299248 1.51712 
-0.0353182 -0.0299653 1.51724 -0.0353209 -0.029908 1.51702 -0.0350804 -0.0299673 1.51729 
-0.0348945 -0.0299357 1.5172 -0.0356925 -0.0300338 1.51752 -0.035937 -0.0300374 1.5176 
-0.0358645 -0.0300132 1.51739 -0.0356892 -0.0300563 1.51773 -0.0355183 -0.0300444 1.51762 
-0.0355132 -0.0298898 1.51691 -0.0353137 -0.0298518 1.51681 -0.0356766 -0.0298584 1.5168 
-0.0355251 -0.0298385 1.51675 -0.031958 -0.0242636 1.52393 -0.0318796 -0.0243401 1.52376 
-0.0317772 -0.0241979 1.52387 -0.0320598 -0.0244148 1.52383 -0.0321533 -0.0243162 1.52398 
-0.0350767 -0.0300959 1.51871 -0.0350799 -0.0301117 1.51853 -0.0348938 -0.0300937 1.51865 
-0.0352673 -0.0301033 1.51866 -0.0352919 -0.0301123 1.51843 -0.0323869 -0.0290518 1.51719 
-0.0323383 -0.0291062 1.51737 -0.0324941 -0.0291935 1.51729 -0.032543 -0.0291401 1.51711 
-0.0324293 -0.0289803 1.517 -0.0322028 -0.0282167 1.51633 -0.0322977 -0.0284029 1.51642 
-0.0324013 -0.0283333 1.51625 -0.032495 -0.0285194 1.51635 -0.0325692 -0.0284334 1.51619 
-0.0323373 -0.0287164 1.51672 -0.0322188 -0.0287026 1.51684 -0.0323164 -0.0288215 1.5169 
-0.0323726 -0.0285922 1.51654 -0.0321763 -0.0285692 1.51672 -0.0331434 -0.0285729 1.51577 
-0.0332431 -0.0287378 1.51584 -0.0333082 -0.0286273 1.51567 -0.0329852 -0.0285492 1.5159 
-0.0331042 -0.0286658 1.5159 -0.0335916 -0.0288476 1.51567 -0.0336548 -0.0290115 1.51578 
-0.0337516 -0.0289417 1.51566 -0.0338365 -0.0290724 1.51574 -0.0339139 -0.028964 1.5156 
-0.0334716 -0.0286776 1.51559 -0.0333815 -0.0285303 1.51551 -0.0336232 -0.0287071 1.51551 
-0.0335511 -0.0285818 1.51544 -0.0331563 -0.0288113 1.51599 -0.03323 -0.0289927 1.5161 
-0.0328461 -0.0283957 1.5159 -0.0327121 -0.028428 1.51606 -0.0328453 -0.028197 1.51572 
-0.0326868 -0.0282371 1.51591 -0.0355991 -0.0300951 1.51817 -0.0355255 -0.0301047 1.51836 
-0.0357206 -0.0300972 1.51832 -0.0353284 -0.030106 1.51821 -0.0369484 -0.0284449 1.52103 
-0.037034 -0.0282756 1.52112 -0.0371312 -0.028374 1.52096 -0.0367598 -0.028505 1.5211 
-0.0368518 -0.028342 1.52118 -0.0369315 -0.0281724 1.52126 -0.0371091 -0.0280996 1.52118 
-0.0332269 -0.0230477 1.51537 -0.0330507 -0.0231168 1.51543 -0.0331207 -0.0232122 1.5153 
-0.0329461 -0.0232881 1.51535 -0.0330561 -0.0233635 1.51522 -0.0336146 -0.0232024 1.51502 
-0.0338006 -0.0231498 1.51497 -0.033696 -0.0230357 1.51511 -0.0337245 -0.0233157 1.51489 
-0.0335369 -0.0233694 1.51495 -0.0339725 -0.0228321 1.51516 -0.0340756 -0.0229431 1.51502 
-0.0341693 -0.0227894 1.51511 -0.0337824 -0.0228765 1.5152 -0.0338832 -0.0229866 1.51506 
-0.0312688 -0.0232804 1.5168 -0.031407 -0.0231782 1.51671 -0.0313479 -0.0231153 1.51689 
-0.0313346 -0.0233582 1.51663 -0.0314783 -0.0232604 1.51654 -0.0317129 -0.0224617 1.5177 
-0.0315842 -0.0225714 1.51758 -0.0317438 -0.022499 1.51749 -0.0315469 -0.0225368 1.51776 
-0.0314215 -0.0226491 1.51764 -0.0310912 -0.022816 1.51781 -0.0311443 -0.0228769 1.51761 
-0.0312523 -0.0227302 1.51772 -0.0309397 -0.0229162 1.51791 -0.0309946 -0.0229786 1.5177 
-0.0307855 -0.0232548 1.51772 -0.0307151 -0.0234203 1.51765 -0.0308501 -0.0233228 1.51755 
-0.0307829 -0.0234871 1.51747 -0.0309195 -0.0233831 1.51737 -0.0319254 -0.0234379 1.51598 
-0.0319917 -0.0232599 1.51605 -0.0318265 -0.0233421 1.51613 -0.0320227 -0.0235342 1.51583 
-0.0320902 -0.0233574 1.5159 -0.0311328 -0.0237743 1.51657 -0.0312518 -0.0236882 1.51649 
-0.0312271 -0.0235673 1.5166 -0.0327632 -0.0233671 1.51541 -0.0328748 -0.0231915 1.51548 
-0.03297 -0.0230287 1.51558 -0.0318079 -0.0230799 1.51637 -0.031642 -0.023167 1.51645 
-0.0317338 -0.0232516 1.51629 -0.0318933 -0.0229147 1.51645 -0.0317198 -0.0229966 1.51653 
-0.0319121 -0.0226728 1.51671 -0.0318519 -0.0226136 1.5169 -0.0317401 -0.0227563 1.51679 
-0.0320257 -0.0225357 1.51682 -0.0320947 -0.0226003 1.51664 -0.0321516 -0.0239111 1.51549 
-0.0323207 -0.0237966 1.51542 -0.0322115 -0.0237351 1.51555 -0.0322471 -0.0239986 1.51535 
-0.0320867 -0.0240887 1.51544 -0.0322745 -0.0235671 1.51561 -0.0323392 -0.0236554 1.5155 
-0.032425 -0.0235165 1.51553 -0.0323459 -0.0233956 1.51568 -0.0324238 -0.0238794 1.51528 
-0.032359 -0.0240844 1.51522 -0.0324837 -0.0236604 1.51538 -0.0328691 -0.023454 1.51528 
-0.0326946 -0.0235845 1.51529 -0.032851 -0.0235926 1.51519 -0.0367988 -0.0278173 1.51527 
-0.0369694 -0.0277314 1.51534 -0.0368672 -0.0276437 1.51519 -0.0367267 -0.0279945 1.51534 
-0.0369004 -0.0279097 1.51542 -0.0341839 -0.021786 1.52227 -0.0339767 -0.0217602 1.5223 
-0.0341081 -0.0216086 1.52218 -0.0340764 -0.0219004 1.52241 -0.0342667 -0.0219405 1.52237 
-0.0300194 -0.0241539 1.5179 -0.0300904 -0.0239907 1.51798 -0.030164 -0.0240512 1.5178 
-0.02954 -0.0246539 1.51817 -0.0294866 -0.0248437 1.51811 -0.0296058 -0.0247184 1.51798 
-0.0294949 -0.0245933 1.51836 -0.0294302 -0.0247735 1.5183 -0.032045 -0.0218946 1.52123 
-0.0321992 -0.0218035 1.52132 -0.0321116 -0.0219487 1.52142 -0.0319937 -0.0218479 1.52105 
-0.032139 -0.0217496 1.52114 -0.0313551 -0.022388 1.52116 -0.0312053 -0.022443 1.52107 
-0.0312919 -0.0223136 1.52099 -0.0314102 -0.0221872 1.52089 -0.0312519 -0.0222419 1.52082 
-0.031342 -0.022602 1.52143 -0.0314007 -0.0226625 1.52164 -0.031258 -0.0227655 1.52153 
-0.031498 -0.022503 1.52153 -0.0314218 -0.022457 1.52134 -0.0310876 -0.0226093 1.52111 
-0.0309674 -0.0227407 1.52109 -0.0309201 -0.0228931 1.52115 -0.0308306 -0.0227969 1.521 
-0.0322237 -0.0216175 1.52106 -0.0323596 -0.0215053 1.52113 -0.0322807 -0.0216538 1.52123 
-0.0324307 -0.0215549 1.52131 -0.0321768 -0.0217816 1.51957 -0.0321345 -0.0217438 1.51976 
-0.0320244 -0.0218623 1.51965 -0.032284 -0.0216631 1.51968 -0.0323274 -0.0217013 1.51948 
-0.0318258 -0.0219096 1.51993 -0.0318683 -0.0219487 1.51973 -0.0319864 -0.0218228 1.51985 
-0.0316651 -0.0219926 1.52002 -0.0317157 -0.0220279 1.51981 -0.0304002 -0.0235811 1.52096 
-0.0304445 -0.0233895 1.52092 -0.0305546 -0.0234747 1.52106 -0.030249 -0.0236806 1.52086 
-0.0302952 -0.0234904 1.52081 -0.0303877 -0.0230972 1.51945 -0.0302527 -0.0231924 1.51955 
-0.0302824 -0.0232323 1.51934 -0.0304264 -0.0231238 1.51923 -0.0305337 -0.0230021 1.51935 
-0.0305222 -0.0234519 1.51792 -0.0305977 -0.0232829 1.518 -0.0304585 -0.0233876 1.51811 
-0.0305861 -0.0235156 1.51774 -0.0306549 -0.0233516 1.51782 -0.0303359 -0.0244268 1.52131 
-0.0301901 -0.0245283 1.52121 -0.0302401 -0.0243477 1.52115 -0.0302735 -0.024607 1.52137 
-0.0301264 -0.0247118 1.52127 -0.0302809 -0.0241613 1.5211 -0.0301299 -0.0242581 1.52101 
-0.0301706 -0.0240683 1.52096 -0.0303232 -0.0239652 1.52105 -0.0368072 -0.0241691 1.51453 
-0.0368493 -0.0243579 1.5145 -0.0369783 -0.0242343 1.51462 -0.0366877 -0.0242869 1.51442 
-0.0366418 -0.0240944 1.51446 -0.0296479 -0.0260143 1.51777 -0.0295595 -0.0260756 1.51791 
-0.0296623 -0.0262105 1.51784 -0.0296287 -0.0258187 1.51775 -0.0295349 -0.0259049 1.51788 
-0.0299923 -0.0261504 1.51743 -0.0299671 -0.0259418 1.51739 -0.02986 -0.0260379 1.51753 
-0.0298938 -0.026242 1.51757 -0.030036 -0.0263514 1.51748 -0.0300349 -0.0248744 1.51741 
-0.0300038 -0.0250849 1.51738 -0.0301379 -0.0249836 1.51728 -0.0301671 -0.0247804 1.51731 
-0.0300709 -0.0246779 1.51745 -0.0333937 -0.0210376 1.51957 -0.0333181 -0.0209266 1.51974 
-0.0332004 -0.0210954 1.51964 -0.0335935 -0.0209944 1.51951 -0.0334856 -0.0208985 1.51966 
-0.0358279 -0.0226889 1.51503 -0.035624 -0.0226691 1.51501 -0.0357311 -0.0228011 1.51489 
-0.0357143 -0.0225673 1.51515 -0.0359182 -0.0225877 1.5152 -0.0358162 -0.0232128 1.51456 
-0.0358942 -0.0233712 1.51446 -0.0360193 -0.0232481 1.51459 -0.0356986 -0.0233396 1.51445 
-0.0356131 -0.0231913 1.51455 -0.0305371 -0.0241733 1.5172 -0.0304062 -0.0242821 1.5173 
-0.0304865 -0.0243508 1.51714 -0.0304695 -0.024095 1.51736 -0.0303303 -0.0242005 1.51746 
-0.0307484 -0.024409 1.51673 -0.0307979 -0.0242171 1.51677 -0.0306786 -0.0243273 1.51688 
-0.0308272 -0.0245022 1.51657 -0.0308721 -0.0243028 1.51661 -0.0309538 -0.0243936 1.51645 
-0.0309141 -0.0246034 1.51642 -0.0310474 -0.0244948 1.5163 -0.0310049 -0.024196 1.51649 
-0.0311501 -0.0240807 1.51638 -0.0310748 -0.0239673 1.51653 -0.0312727 -0.023824 1.51639 
-0.0315936 -0.0247175 1.51565 -0.031617 -0.0245371 1.51569 -0.0314892 -0.0246457 1.51579 
-0.0317008 -0.0245908 1.51558 -0.0317412 -0.0248051 1.51547 -0.0366901 -0.0228343 1.51589 
-0.0368263 -0.0229376 1.51599 -0.0367201 -0.0228134 1.51611 -0.0367933 -0.022966 1.51578 
-0.036654 -0.0228572 1.51569 -0.0371655 -0.0279172 1.51565 -0.0373255 -0.0278343 1.51574 
-0.0372579 -0.0276999 1.51557 -0.0370923 -0.0280985 1.51572 -0.0372579 -0.0280182 1.51581 
-0.036954 -0.0289233 1.51629 -0.037026 -0.0287698 1.5162 -0.0371358 -0.0288631 1.51637 
-0.0371895 -0.0286932 1.51627 -0.0369419 -0.0274461 1.51511 -0.036759 -0.0275373 1.51506 
-0.0369832 -0.0272379 1.51501 -0.0368163 -0.0273547 1.51498 -0.0369378 -0.0270625 1.51488 
-0.0368409 -0.0271971 1.51491 -0.0372512 -0.0272963 1.51527 -0.0373921 -0.0271945 1.51535 
-0.0373162 -0.027135 1.51522 -0.0373725 -0.0273528 1.51544 -0.0375159 -0.0271712 1.51548 
-0.0372754 -0.0275169 1.51545 -0.0371387 -0.0276229 1.5154 -0.0372092 -0.0274407 1.51533 
-0.0368224 -0.0280878 1.51548 -0.0366575 -0.0281636 1.5154 -0.036756 -0.0282613 1.51555 
-0.0374042 -0.0289012 1.52003 -0.0373399 -0.0288404 1.52021 -0.0374868 -0.0287424 1.52011 
-0.0373184 -0.0290528 1.51994 -0.0372537 -0.0289891 1.52012 -0.0386062 -0.0268539 1.51855 
-0.0386095 -0.026662 1.51867 -0.0386185 -0.026689 1.51845 -0.0385901 -0.0270377 1.51862 
-0.0385932 -0.0268838 1.51871 -0.0386563 -0.0261502 1.51832 -0.038634 -0.0258903 1.51847 
-0.0386496 -0.0259465 1.51822 -0.0386331 -0.026143 1.51854 -0.0386341 -0.0264214 1.51847 
-0.0386086 -0.026457 1.51875 -0.0386123 -0.0262622 1.5187 -0.0385938 -0.0263531 1.51889 
-0.0385884 -0.0261428 1.51889 -0.0370663 -0.0243859 1.52111 -0.0371485 -0.0243022 1.52096 
-0.03719 -0.0244901 1.52101 -0.03711 -0.0245739 1.52116 -0.0369821 -0.0244749 1.52126 
-0.0363165 -0.0266391 1.52204 -0.0362865 -0.0268524 1.52201 -0.0361648 -0.0267363 1.52213 
-0.0364604 -0.0265537 1.52194 -0.0364351 -0.0267649 1.52192 -0.0345507 -0.0221355 1.52241 
-0.0343618 -0.0220817 1.52247 -0.0344564 -0.0219905 1.52232 -0.0346397 -0.0222907 1.5225 
-0.0344598 -0.0222195 1.52257 -0.0345466 -0.022361 1.52266 -0.0344748 -0.0224301 1.52281 
-0.0343877 -0.0222925 1.52273 -0.03473 -0.0224654 1.52259 -0.0346081 -0.022492 1.52273 
-0.0349412 -0.02274 1.5226 -0.0347548 -0.022652 1.52273 -0.0348388 -0.022595 1.52259 
-0.0349249 -0.0225362 1.52246 -0.0378515 -0.0236148 1.51876 -0.0379376 -0.0237795 1.51886 
-0.0378097 -0.0236652 1.51896 -0.037886 -0.0238258 1.51905 -0.037752 -0.0237166 1.51916 
-0.0358567 -0.0229753 1.52183 -0.0359374 -0.0228902 1.52167 -0.0357736 -0.0230636 1.52198 
-0.0362837 -0.0224327 1.51959 -0.0361999 -0.0223685 1.51935 -0.0363699 -0.0225056 1.51943 
-0.0363561 -0.0224987 1.51975 -0.0362083 -0.0223415 1.5198 -0.0352816 -0.021243 1.5197 
-0.0353664 -0.0211068 1.51983 -0.0351715 -0.0210359 1.51971 -0.0353807 -0.0214732 1.51963 
-0.0354406 -0.0213157 1.5198 -0.0356222 -0.0214669 1.5199 -0.035494 -0.0214672 1.51975 
-0.0355228 -0.021223 1.51992 -0.0356527 -0.0212539 1.52005 -0.0365724 -0.0285636 1.52115 
-0.0363838 -0.0286171 1.5212 -0.0370217 -0.0290089 1.52038 -0.0369243 -0.0291521 1.52028 
-0.0368467 -0.0290775 1.52045 -0.037094 -0.0290756 1.52021 -0.0369967 -0.0292236 1.52011 
-0.036946 -0.0289375 1.52055 -0.0367647 -0.0289959 1.52061 -0.0368595 -0.0288552 1.52071 
-0.0371649 -0.0291406 1.52003 -0.037225 -0.0292031 1.51984 -0.0354633 -0.0293967 1.52075 
-0.0352556 -0.0294258 1.5208 -0.035384 -0.0293221 1.52091 -0.0355399 -0.029462 1.52058 
-0.0353359 -0.0294977 1.52063 -0.0360861 -0.0290576 1.52089 -0.0358927 -0.0291113 1.52094 
-0.0359997 -0.028974 1.52105 -0.0361774 -0.0291431 1.52074 -0.0359784 -0.0291894 1.52078 
-0.0367044 -0.02939 1.5166 -0.0365835 -0.0293438 1.51644 -0.0365505 -0.0294585 1.51656 
-0.036775 -0.0292513 1.51649 -0.0368641 -0.0293342 1.51666 -0.0369419 -0.029415 1.51683 
-0.0367731 -0.0294755 1.51677 -0.0368365 -0.0295555 1.51694 -0.0371068 -0.0293468 1.51691 
-0.0372249 -0.0289548 1.51652 -0.0370477 -0.0290202 1.51646 -0.0368599 -0.0290848 1.51638 
-0.0363421 -0.029323 1.51622 -0.0363717 -0.0294576 1.51642 -0.0364958 -0.0292882 1.5163 
-0.0361482 -0.0293569 1.51613 -0.0362063 -0.0294354 1.51627 -0.0366894 -0.0284365 1.51562 
-0.0368588 -0.028365 1.51571 -0.0366201 -0.0285991 1.51569 -0.0367871 -0.0285331 1.51578 
-0.0364076 -0.0283924 1.51541 -0.0362191 -0.0284467 1.51535 -0.0363333 -0.0285585 1.51548 
-0.0361388 -0.0286106 1.51543 -0.036249 -0.0287242 1.51556 -0.0322671 -0.0263033 1.51513 
-0.0321691 -0.0264033 1.51525 -0.0323087 -0.0264961 1.51516 -0.0321281 -0.0262131 1.51523 
-0.0327576 -0.0279881 1.51563 -0.032666 -0.0280711 1.51578 -0.0329807 -0.0275007 1.51511 
-0.0328723 -0.0276077 1.51524 -0.0330311 -0.027687 1.51516 -0.0328183 -0.0274246 1.51518 
-0.032714 -0.0275275 1.51532 -0.03181 -0.0270005 1.51587 -0.0319016 -0.0269061 1.51571 
-0.0317629 -0.0268125 1.51581 -0.0318591 -0.0271864 1.51592 -0.0319506 -0.0270923 1.51577 
-0.0312206 -0.026415 1.51624 -0.0313 -0.0263106 1.51609 -0.031178 -0.0262127 1.5162 
-0.0312683 -0.0266047 1.51629 -0.0313459 -0.0265077 1.51614 -0.0314282 -0.0264066 1.51598 
-0.0313803 -0.0262087 1.51594 -0.0314795 -0.0266041 1.51603 -0.0315776 -0.0279412 1.51683 
-0.0316572 -0.0281102 1.5169 -0.0316586 -0.0278795 1.51666 -0.0315055 -0.0277836 1.51677 
-0.0314134 -0.0275959 1.51672 -0.0313518 -0.0276845 1.51689 -0.0313504 -0.0274328 1.51668 
-0.0312699 -0.0275078 1.51684 -0.0327642 -0.0272396 1.51513 -0.0326003 -0.0271638 1.51521 
-0.0329318 -0.0273138 1.51507 -0.032873 -0.0271323 1.51502 -0.0318695 -0.0285717 1.51719 
-0.0319726 -0.0287222 1.51727 -0.0317807 -0.0284282 1.51712 -0.0314998 -0.0282411 1.51731 
-0.0316459 -0.0283279 1.5172 -0.0315593 -0.028169 1.51712 -0.032059 -0.0251412 1.51516 
-0.031915 -0.0250736 1.51528 -0.0319282 -0.0252731 1.51526 -0.0317928 -0.0251741 1.51538 
-0.0318005 -0.0253747 1.51538 -0.0312439 -0.0268771 1.51648 -0.0313202 -0.0267874 1.51633 
-0.0311886 -0.0266958 1.51644 -0.0312956 -0.0270206 1.5165 -0.0313634 -0.0269586 1.51638 
-0.030861 -0.0267516 1.51684 -0.030754 -0.0268307 1.517 -0.0309214 -0.0269437 1.5169 
-0.0308131 -0.0265633 1.51679 -0.0307107 -0.0266481 1.51694 -0.0311206 -0.0272468 1.51685 
-0.0312666 -0.0272068 1.51665 -0.031085 -0.0270571 1.51678 -0.0312263 -0.0273761 1.5168 
-0.0311332 -0.027411 1.51695 -0.0304168 -0.026744 1.51732 -0.0304665 -0.0269195 1.5174 
-0.0305383 -0.0268672 1.51727 -0.0305562 -0.026703 1.51713 -0.0303706 -0.0265734 1.51725 
-0.0306012 -0.0270211 1.51732 -0.0306678 -0.0271836 1.51737 -0.0311078 -0.0276551 1.5172 
-0.03099 -0.0276452 1.51735 -0.0311485 -0.0278593 1.51735 -0.0311598 -0.0275593 1.51703 
-0.0312477 -0.02776 1.51711 -0.0307595 -0.0278125 1.51788 -0.0308551 -0.0277652 1.51767 
-0.0307073 -0.0276695 1.51778 -0.0308426 -0.0279724 1.51797 -0.0308908 -0.0279114 1.51779 
-0.0309816 -0.0280471 1.51784 -0.0311097 -0.0281386 1.51776 -0.0310425 -0.0279537 1.51762 
-0.0310775 -0.028222 1.51798 -0.0302676 -0.0248654 1.52158 -0.0302006 -0.0247905 1.52143 
-0.030339 -0.024679 1.52153 -0.030214 -0.0250691 1.52163 -0.0301428 -0.0249933 1.52149 
-0.0306459 -0.024248 1.52173 -0.0306817 -0.0243013 1.52191 -0.0305863 -0.0244358 1.52178 
-0.0307403 -0.0241152 1.52186 -0.0306984 -0.0240707 1.52167 -0.0305384 -0.0270092 1.52319 
-0.0305635 -0.0272516 1.52321 -0.0306105 -0.0271981 1.52297 -0.030627 -0.0259612 1.52286 
-0.0307132 -0.025826 1.523 -0.0306619 -0.0260181 1.52306 -0.0306641 -0.0257659 1.52282 
-0.0307691 -0.0256363 1.52295 -0.0305201 -0.0267264 1.52342 -0.0305218 -0.0268196 1.52326 
-0.030537 -0.0266407 1.52322 -0.0304895 -0.0268457 1.52359 -0.030504 -0.0269314 1.52339 
-0.0298015 -0.0263266 1.51773 -0.0297131 -0.0264452 1.51792 -0.0298639 -0.02652 1.51779 
-0.0298046 -0.0266139 1.51794 -0.0299387 -0.0267072 1.51785 -0.0302424 -0.0271465 1.51789 
-0.0303872 -0.0272361 1.51779 -0.0303131 -0.0270658 1.51772 -0.0303238 -0.0273142 1.51795 
-0.0304635 -0.0274064 1.51785 -0.0300409 -0.0271301 1.51816 -0.0300991 -0.0270553 1.51798 
-0.0299478 -0.0269562 1.51809 -0.0301245 -0.0272893 1.51823 -0.0301816 -0.0272227 1.51806 
-0.0298483 -0.0267719 1.51803 -0.0298083 -0.026877 1.5182 -0.0296965 -0.0266068 1.51808 
-0.0295673 -0.0266213 1.51827 -0.0297201 -0.0267423 1.51818 -0.029638 -0.0270103 1.51978 
-0.0297569 -0.0271273 1.5199 -0.0297084 -0.0271812 1.51971 -0.0296997 -0.0269521 1.51998 
-0.0298195 -0.0270762 1.5201 -0.0313296 -0.0223618 1.52272 -0.0314984 -0.0222851 1.52265 
-0.0314065 -0.0222107 1.52279 -0.0312614 -0.0225445 1.52265 -0.0314119 -0.022447 1.52257 
-0.0310038 -0.022753 1.52286 -0.0311234 -0.0226516 1.52276 -0.0310291 -0.0225503 1.52291 
-0.0310966 -0.0228447 1.52271 -0.0309994 -0.0229477 1.52283 -0.0319439 -0.0255738 1.52395 
-0.0321328 -0.0255209 1.524 -0.0320368 -0.0256741 1.5241 -0.0318417 -0.0254759 1.52381 
-0.0320262 -0.0254138 1.52387 -0.033617 -0.0279545 1.52406 -0.0337431 -0.0278491 1.52396 
-0.0336434 -0.027993 1.52386 -0.0335574 -0.0279341 1.5243 -0.0336978 -0.0278021 1.52416 
-0.0313977 -0.0284254 1.52353 -0.0312404 -0.0283313 1.5234 -0.031214 -0.0283579 1.52361 
-0.0314158 -0.0284046 1.52332 -0.0312595 -0.0283053 1.52318 -0.0318821 -0.0284575 1.52248 
-0.0318349 -0.0284735 1.52273 -0.0320676 -0.0285087 1.52271 -0.0309853 -0.0283294 1.51867 
-0.0311224 -0.0284135 1.51857 -0.0309937 -0.0283058 1.51845 -0.0309596 -0.0283236 1.51887 
-0.0311147 -0.0284194 1.51879 -0.0325084 -0.0279644 1.51584 -0.0326043 -0.0278924 1.51569 
-0.0324386 -0.0277967 1.51577 -0.0323401 -0.0278819 1.51592 -0.0325372 -0.0277213 1.51562 
-0.0326895 -0.027808 1.51554 -0.0323699 -0.0276331 1.51571 -0.0364395 -0.027953 1.51514 
-0.0362478 -0.0280027 1.5151 -0.0363655 -0.02812 1.51521 -0.036505 -0.0277806 1.51507 
-0.0363187 -0.0278342 1.51503 -0.0360925 -0.0285651 1.52138 -0.0361783 -0.0284041 1.52146 
-0.0362823 -0.0285115 1.52134 -0.0359022 -0.0286094 1.52143 -0.0359889 -0.0284491 1.52151 
-0.0358325 -0.0271173 1.52228 -0.0358783 -0.0269325 1.52233 -0.0359828 -0.0270291 1.52219 
-0.0356919 -0.0271991 1.52237 -0.0357397 -0.0270269 1.52243 -0.0354937 -0.0274646 1.52241 
-0.0355564 -0.0272916 1.52247 -0.0356366 -0.0273797 1.52232 -0.0351242 -0.0285316 1.52182 
-0.0353183 -0.0284823 1.52177 -0.0352203 -0.0286334 1.52168 -0.0350301 -0.0284326 1.52196 
-0.0352149 -0.0283848 1.5219 -0.0354148 -0.0285914 1.52164 -0.0355088 -0.0284288 1.52172 
-0.0356108 -0.0285434 1.5216 -0.0356931 -0.0283868 1.52167 -0.0358006 -0.028497 1.52155 
-0.0369354 -0.0238085 1.52099 -0.0368434 -0.0238885 1.52114 -0.0368004 -0.0237032 1.52109 
-0.0368899 -0.0236237 1.52094 -0.0370233 -0.0237316 1.52082 -0.0366807 -0.0230991 1.52074 
-0.0365988 -0.0229375 1.52066 -0.0367288 -0.0230464 1.52054 -0.0366191 -0.0231599 1.52092 
-0.0365436 -0.0229915 1.52085 -0.037026 -0.023489 1.52058 -0.0370939 -0.0236603 1.52064 
-0.0369672 -0.02355 1.52076 -0.0350197 -0.0233483 1.52287 -0.034978 -0.0231501 1.52283 
-0.035118 -0.0232409 1.52273 -0.0351604 -0.0234346 1.52278 -0.0350491 -0.0235434 1.52291 
-0.0361923 -0.0250313 1.52242 -0.0360613 -0.0249155 1.52252 -0.0361611 -0.0248144 1.5224 
-0.0361971 -0.0252453 1.52244 -0.0360831 -0.0251251 1.52254 -0.036351 -0.024616 1.5221 
-0.0363001 -0.0244184 1.52206 -0.0364247 -0.0245203 1.52194 -0.0363796 -0.0243286 1.52189 
-0.0365085 -0.0244391 1.52179 -0.0384027 -0.025642 1.51665 -0.038365 -0.025455 1.51652 
-0.038365 -0.0256531 1.51647 -0.038384 -0.0258675 1.51655 -0.0384377 -0.0257817 1.51679 
-0.0330253 -0.022569 1.51613 -0.0329406 -0.0225009 1.51628 -0.0328263 -0.0226159 1.51616 
-0.0332193 -0.0225313 1.51609 -0.0331394 -0.0224679 1.51625 -0.0337313 -0.0225732 1.51564 
-0.0336145 -0.0226976 1.51553 -0.033797 -0.0226466 1.51548 -0.0335481 -0.022619 1.51569 
-0.0334353 -0.0227502 1.51558 -0.0375486 -0.0258706 1.52106 -0.0375189 -0.0260878 1.52112 
-0.0374283 -0.0259445 1.52122 -0.0376887 -0.0258717 1.52086 -0.0376302 -0.0260342 1.52097 
-0.0372949 -0.0256348 1.52132 -0.0373192 -0.0258214 1.52132 -0.0371681 -0.0257378 1.52146 
-0.037213 -0.0259139 1.52143 -0.0370467 -0.0259084 1.52156 -0.0339331 -0.0294219 1.51608 
-0.0338892 -0.0293117 1.51596 -0.0337463 -0.0293477 1.51607 -0.0340482 -0.0293515 1.51595 
-0.0339559 -0.0292125 1.51583 -0.033487 -0.0293133 1.5162 -0.0334146 -0.0291144 1.51605 
-0.0335876 -0.0292579 1.51607 -0.0336592 -0.02942 1.51621 -0.0333308 -0.0295352 1.5167 
-0.033499 -0.0295928 1.51661 -0.0333544 -0.0294394 1.5165 -0.0333031 -0.0295927 1.51692 
-0.0334633 -0.0296599 1.51684 -0.0328661 -0.0293138 1.51695 -0.0330269 -0.0293933 1.51687 
-0.0329188 -0.0292528 1.51677 -0.0329817 -0.0294383 1.51707 -0.0328207 -0.0293619 1.51714 
-0.034115 -0.0228019 1.52356 -0.0342271 -0.0229539 1.52352 -0.0341238 -0.0230292 1.52365 
-0.0341391 -0.0225992 1.52339 -0.0342758 -0.0228041 1.52339 -0.0341005 -0.0223462 1.52312 
-0.0342687 -0.0224285 1.52305 -0.0342017 -0.022493 1.52321 -0.0340331 -0.0224062 1.52329 
-0.0339224 -0.022269 1.5232 -0.033866 -0.0223241 1.52338 -0.0337492 -0.0221937 1.52327 
-0.033702 -0.0222425 1.52346 -0.0331249 -0.0232029 1.52454 -0.033271 -0.0231165 1.52444 
-0.0332304 -0.0233153 1.52441 -0.0330677 -0.0233973 1.5245 -0.0329753 -0.0232842 1.52463 
-0.0353212 -0.0211163 1.52175 -0.0354781 -0.0211455 1.52162 -0.0353131 -0.0213495 1.52176 
-0.0350717 -0.0212883 1.52188 -0.0351196 -0.0210502 1.52188 -0.03478 -0.0281938 1.52241 
-0.0347182 -0.0281322 1.52257 -0.0348716 -0.0280642 1.5225 -0.0344142 -0.0283152 1.52252 
-0.0342108 -0.0283541 1.52256 -0.0343465 -0.0282463 1.52268 -0.0344845 -0.0283834 1.52236 
-0.0342863 -0.0284245 1.5224 -0.0356117 -0.0271137 1.52253 -0.0349025 -0.0276123 1.52307 
-0.0350515 -0.0275316 1.52296 -0.0349592 -0.0277047 1.52289 -0.0318419 -0.0289756 1.51882 
-0.0318902 -0.0290217 1.51857 -0.0317472 -0.0289039 1.51866 -0.0314482 -0.0242818 1.52347 
-0.0313588 -0.0241174 1.52355 -0.0315271 -0.0242003 1.52364 -0.0313532 -0.0243702 1.52332 
-0.0312981 -0.0241801 1.52337 -0.0311323 -0.0259747 1.52382 -0.0309755 -0.0260533 1.52373 
-0.0310686 -0.025904 1.52364 -0.0311855 -0.0260345 1.52399 -0.0310227 -0.0261113 1.52392 
-0.0330823 -0.0264611 1.52475 -0.0331329 -0.0263522 1.52461 -0.033255 -0.026478 1.52461 
-0.0296503 -0.0267876 1.51833 -0.0297542 -0.026936 1.51836 -0.032397 -0.026888 1.51524 
-0.0323569 -0.0266936 1.5152 -0.0322527 -0.026793 1.51533 -0.0366623 -0.029132 1.52051 
-0.0365748 -0.0290478 1.52066 -0.0367427 -0.0292129 1.52035 -0.0357616 -0.0218777 1.51969 
-0.0358224 -0.021842 1.51985 -0.0356812 -0.0217034 1.51978 -0.0358546 -0.0220309 1.5196 
-0.0358908 -0.0219837 1.51978 -0.0368033 -0.023193 1.51529 -0.0367384 -0.023259 1.51511 
-0.0368898 -0.0233504 1.5152 -0.0367129 -0.0230422 1.51538 -0.0366568 -0.0230969 1.5152 
-0.0305265 -0.0239169 1.51743 -0.0305888 -0.0237457 1.51749 -0.0304483 -0.0238422 1.5176 
-0.0305997 -0.023994 1.51726 -0.0306622 -0.0238185 1.51733 -0.0300248 -0.0234592 1.52034 
-0.0299625 -0.0236345 1.52041 -0.0299247 -0.0235742 1.52021 -0.0300035 -0.0234169 1.52014 
-0.0300993 -0.0232967 1.52027 -0.0294394 -0.0250791 1.51996 -0.0294645 -0.0249063 1.52 
-0.0294863 -0.0250351 1.52016 -0.0294081 -0.0250169 1.51981 -0.0294363 -0.0248348 1.51981 
-0.0315766 -0.0221253 1.52097 -0.0317417 -0.0220573 1.52105 -0.0316152 -0.0222036 1.52117 
-0.0315399 -0.0220761 1.52078 -0.0316973 -0.022008 1.52086 -0.0316332 -0.0223161 1.5214 
-0.0314825 -0.0223209 1.52121 -0.031656 -0.0224212 1.52163 -0.0343262 -0.0223598 1.52289 
-0.034162 -0.0222903 1.52296 -0.034421 -0.0225069 1.52297 -0.0349837 -0.0221613 1.52214 
-0.035155 -0.0222433 1.52207 -0.0350543 -0.0223322 1.52219 -0.0350947 -0.0220561 1.52202 
-0.0349327 -0.021985 1.52209 -0.0331448 -0.0229604 1.51553 -0.0330632 -0.0228718 1.51568 
-0.0333271 -0.0228937 1.51547 -0.0332472 -0.0228069 1.51563 -0.0372604 -0.0270765 1.52136 
-0.0372825 -0.0268738 1.52136 -0.0373939 -0.026988 1.52127 -0.0371127 -0.0271694 1.52145 
-0.0371266 -0.026969 1.52146 -0.0326731 -0.0214775 1.51947 -0.0327793 -0.0215112 1.51925 
-0.0329115 -0.0213967 1.51937 -0.0337019 -0.020307 1.51999 -0.0336654 -0.0205484 1.51984 
-0.03389 -0.020325 1.51985 -0.0339353 -0.0204974 1.51972 -0.0341483 -0.0203604 1.51972 
-0.0334364 -0.0202927 1.52024 -0.0334376 -0.0204271 1.52013 -0.0335653 -0.0202976 1.52011 
-0.0331405 -0.0203101 1.5207 -0.0330231 -0.0204799 1.52076 -0.0330939 -0.020479 1.52056 
-0.0321143 -0.0262559 1.52495 -0.0320815 -0.0261803 1.52481 -0.0323232 -0.0262219 1.52482 
-0.0334837 -0.0279294 1.52454 -0.0336214 -0.0277716 1.5244 -0.0307754 -0.0235028 1.52344 
-0.0307131 -0.0233273 1.52334 -0.0306566 -0.0233622 1.52349 -0.0308649 -0.0236428 1.52353 
-0.0308829 -0.0236126 1.52331 -0.0308263 -0.0234457 1.52323 -0.0306861 -0.0234974 1.52368 
-0.0308549 -0.0235226 1.5215 -0.0309076 -0.0235927 1.52169 -0.0308008 -0.0237053 1.52155 
-0.0309663 -0.0234076 1.52163 -0.0307369 -0.0236417 1.52137 -0.0307913 -0.0234544 1.52132 
-0.0309115 -0.0233322 1.52145 -0.0317219 -0.0282771 1.51701 -0.0318506 -0.0284093 1.51697 
-0.0321175 -0.0282879 1.51649 -0.0319742 -0.0284583 1.51685 -0.0354618 -0.0300867 1.51883 
-0.0356739 -0.0300698 1.51892 -0.0356788 -0.0300905 1.51871 -0.035484 -0.0301038 1.51858 
-0.0346215 -0.0273135 1.52345 -0.0344945 -0.0271858 1.52356 -0.0346592 -0.0271073 1.52348 
-0.034787 -0.0272357 1.52338 -0.0345702 -0.0275033 1.52342 -0.0344575 -0.0273878 1.52353 
-0.0346607 -0.0253616 1.52348 -0.0345128 -0.0255088 1.52357 -0.0344798 -0.0252893 1.52354 
-0.0348049 -0.0252174 1.5234 -0.0348359 -0.0254335 1.52342 -0.0346184 -0.0251502 1.52346 
-0.034686 -0.0255818 1.52351 -0.0383901 -0.0272483 1.5196 -0.0384538 -0.0272918 1.51941 
-0.0383584 -0.0274569 1.51956 -0.0382913 -0.0274004 1.51974 -0.0383341 -0.0271814 1.51978 
-0.0384159 -0.0270283 1.51965 -0.038469 -0.0270836 1.51946 -0.0374126 -0.0263734 1.51487 
-0.0375578 -0.0264011 1.51503 -0.037597 -0.0262308 1.51498 -0.0375022 -0.0261515 1.51484 
-0.0373544 -0.0261948 1.51475 -0.0374598 -0.0265691 1.51503 -0.0372088 -0.026321 1.5147 
-0.0375248 -0.0244042 1.51505 -0.0373407 -0.024596 1.51475 -0.0374843 -0.0246906 1.51485 
-0.0375755 -0.0245957 1.515 -0.0371829 -0.0245146 1.51466 -0.0326649 -0.02155 1.52157 
-0.0327547 -0.0216252 1.52174 -0.0374607 -0.0244562 1.52057 -0.0373471 -0.0243363 1.52069 
-0.0374194 -0.0242689 1.52053 -0.037388 -0.0245284 1.52074 -0.0375347 -0.0243901 1.52041 
-0.0375747 -0.0245739 1.52045 -0.0375033 -0.0246475 1.52062 -0.037567 -0.0283356 1.52042 
-0.0374392 -0.0284461 1.52053 -0.0376279 -0.0281445 1.52049 -0.0373001 -0.0282894 1.52087 
-0.0331649 -0.0249142 1.52395 -0.0332135 -0.0247553 1.52395 -0.033352 -0.024903 1.52391 
-0.0332216 -0.0250815 1.52396 -0.0330413 -0.0250007 1.52396 -0.033053 -0.0248162 1.52396 
-0.0325571 -0.0281061 1.51591 -0.0325173 -0.0282531 1.51607 -0.035028 -0.029655 1.51631 
-0.035118 -0.0297273 1.51646 -0.0352591 -0.0296516 1.51633 -0.034932 -0.029575 1.51614 
-0.0348065 -0.0296624 1.51629 -0.035169 -0.0295777 1.51618 -0.0348826 -0.0297255 1.51645 
-0.03556 -0.02927 1.51577 -0.0354677 -0.02915 1.51563 -0.0353662 -0.0292878 1.51574 
-0.0354379 -0.0293995 1.51589 -0.0356483 -0.0293683 1.51591 -0.0357729 -0.0292335 1.5158 
-0.0356741 -0.0291226 1.51566 -0.0341464 -0.0287409 1.51532 -0.0342472 -0.0288771 1.51542 
-0.0343787 -0.0287658 1.5153 -0.0340492 -0.0285948 1.51523 -0.0339221 -0.02871 1.51536 
-0.0342664 -0.0286193 1.51521 -0.0340206 -0.0288563 1.51546 -0.037928 -0.0249394 1.52009 
-0.0380493 -0.025065 1.51997 -0.0379758 -0.0251391 1.52014 -0.037859 -0.0250115 1.52025 
-0.0378108 -0.0248149 1.52021 -0.0380006 -0.0248779 1.51993 -0.0378805 -0.0247445 1.52005 
-0.033649 -0.0234847 1.51483 -0.0335717 -0.0236527 1.51477 -0.0337585 -0.0235921 1.51471 
-0.0334616 -0.0235413 1.51489 -0.033838 -0.0234207 1.51477 -0.0364399 -0.0225832 1.5168 
-0.0364575 -0.0225713 1.51705 -0.0362773 -0.0224934 1.51696 -0.0362622 -0.0225044 1.51671 
-0.0366076 -0.0226635 1.5169 -0.0364264 -0.0225847 1.51652 -0.0366007 -0.0226742 1.51666 
-0.0312629 -0.0230071 1.51725 -0.0314029 -0.0228987 1.51716 -0.0313562 -0.0228485 1.51734 
-0.0313076 -0.0230586 1.51707 -0.0311248 -0.0231127 1.51735 -0.0311806 -0.0231688 1.51716 
-0.0312036 -0.022946 1.51743 -0.0321925 -0.0241782 1.51529 -0.0325212 -0.0239929 1.51515 
-0.0319946 -0.0239983 1.51558 -0.0334122 -0.0229835 1.51532 -0.0333205 -0.023138 1.51523 
-0.0332397 -0.0233017 1.51516 -0.0322611 -0.0220977 1.51823 -0.0322244 -0.0220597 1.51843 
-0.032087 -0.0221598 1.51829 -0.0321224 -0.0221854 1.51808 -0.0323992 -0.0219985 1.51837 
-0.0323102 -0.0221261 1.51804 -0.032445 -0.0220485 1.51817 -0.0350415 -0.0220753 1.51723 
-0.0351817 -0.0221317 1.5171 -0.0352392 -0.0221117 1.51728 -0.0348614 -0.0220056 1.51739 
-0.034827 -0.0220573 1.51716 -0.0350753 -0.0220411 1.51744 -0.0350038 -0.0221143 1.51704 
-0.0369674 -0.0257863 1.51444 -0.036831 -0.0256316 1.51435 -0.0367844 -0.0258394 1.51438 
-0.0369887 -0.0255854 1.51442 -0.0370873 -0.0259369 1.51453 -0.0371333 -0.0257239 1.51451 
-0.0369063 -0.0260037 1.51447 -0.0369495 -0.0249905 1.51441 -0.036802 -0.0251546 1.51432 
-0.0369787 -0.0252317 1.51441 -0.0367678 -0.0249095 1.51432 -0.0371221 -0.0250659 1.5145 
-0.0370896 -0.0248503 1.51451 -0.0369227 -0.0247742 1.51442 -0.0359805 -0.0267641 1.51446 
-0.0360341 -0.026586 1.5144 -0.0358323 -0.0266071 1.51437 -0.0357678 -0.0267923 1.51443 
-0.0359241 -0.0269284 1.51451 -0.036183 -0.0267363 1.51449 -0.036122 -0.0269141 1.51455 
-0.0365107 -0.02732 1.51483 -0.03645 -0.0274881 1.51489 -0.0366363 -0.0274306 1.51494 
-0.0363255 -0.0273697 1.51479 -0.0366925 -0.0272594 1.51487 -0.0363921 -0.0271909 1.51472 
-0.0365742 -0.0271464 1.51477 -0.0350549 -0.0218665 1.52198 -0.0352115 -0.0219382 1.52191 
-0.0348161 -0.0220992 1.5222 -0.0352623 -0.0221415 1.52195 -0.0341289 -0.020982 1.52205 
-0.0339637 -0.0211488 1.52203 -0.0339203 -0.020925 1.52201 -0.0343508 -0.0210411 1.52206 
-0.0341773 -0.0212163 1.52206 -0.0293437 -0.0258725 1.51816 -0.0293499 -0.0256369 1.51811 
-0.0292568 -0.0257527 1.51829 -0.0294382 -0.0257951 1.518 -0.0293813 -0.0261091 1.51819 
-0.0294508 -0.0260038 1.51804 -0.0292696 -0.0259663 1.51832 -0.0298852 -0.0244934 1.51775 
-0.029741 -0.0246024 1.51786 -0.0298266 -0.0246824 1.51769 -0.0298085 -0.02442 1.51793 
-0.0299749 -0.0245801 1.51759 -0.0293747 -0.02497 1.51825 -0.0293239 -0.0249009 1.51845 
-0.029277 -0.0251 1.51839 -0.0293397 -0.0251729 1.5182 -0.0294435 -0.0250453 1.51806 
-0.0294718 -0.0258344 1.52012 -0.0295171 -0.0257369 1.52029 -0.0295273 -0.0259492 1.52024 
-0.0294024 -0.0258319 1.51995 -0.0294536 -0.0256722 1.52009 -0.0294676 -0.0260176 1.52006 
-0.0322652 -0.0220574 1.52201 -0.0322758 -0.0220474 1.52222 -0.0321418 -0.0221184 1.5221 
-0.0321 -0.0221442 1.52193 -0.0323904 -0.0219659 1.52189 -0.0324223 -0.0219778 1.52209 
-0.0322273 -0.0220476 1.52181 -0.0337906 -0.0206838 1.51968 -0.0336016 -0.020764 1.51971 
-0.0336859 -0.0208609 1.5196 -0.033899 -0.0208069 1.51956 -0.0339758 -0.0206607 1.51962 
-0.0346054 -0.0206436 1.5196 -0.0347421 -0.0204931 1.51969 -0.0345462 -0.020442 1.51966 
-0.0344624 -0.0207736 1.51953 -0.0346643 -0.0208153 1.51956 -0.0347996 -0.0206811 1.51964 
-0.0344003 -0.020602 1.51959 -0.0307639 -0.0224917 1.52056 -0.0308958 -0.0223748 1.52045 
-0.0306644 -0.0226489 1.52066 -0.0306254 -0.022606 1.52044 -0.0307533 -0.0224795 1.52033 
-0.0302928 -0.0230014 1.52009 -0.030398 -0.0228683 1.52021 -0.0302912 -0.0230151 1.5203 
-0.0301962 -0.0231356 1.51998 -0.030323 -0.023026 1.51987 -0.0304236 -0.0228869 1.51999 
-0.0301898 -0.0231407 1.52019 -0.0304683 -0.0238637 1.52114 -0.0304257 -0.024058 1.52119 
-0.0302059 -0.0238773 1.52091 -0.0303612 -0.0237717 1.521 -0.029945 -0.0264384 1.51763 
-0.0300152 -0.0266225 1.51769 -0.0297629 -0.026127 1.51767 -0.0312955 -0.0240354 1.51625 
-0.0312321 -0.0242068 1.51623 -0.0313685 -0.0241068 1.51614 -0.0314213 -0.023911 1.51619 
-0.0332209 -0.0249982 1.51444 -0.0332794 -0.0247982 1.51446 -0.03309 -0.0248537 1.51454 
-0.0334053 -0.0249416 1.51436 -0.0330484 -0.0250655 1.51451 -0.0331828 -0.0251853 1.51442 
-0.0333491 -0.025121 1.51435 -0.0327017 -0.0244555 1.51486 -0.0328729 -0.0243829 1.51479 
-0.0327492 -0.024255 1.51491 -0.0328282 -0.0245845 1.51475 -0.0325314 -0.024536 1.51493 
-0.032663 -0.0246649 1.51481 -0.0325765 -0.0243302 1.51498 -0.0341429 -0.0239744 1.51435 
-0.0340152 -0.0238382 1.51445 -0.0339502 -0.0240218 1.51438 -0.0343464 -0.0239561 1.51431 
-0.034204 -0.0237942 1.51442 -0.0342916 -0.0241449 1.51427 -0.0340952 -0.0241711 1.51429 
-0.0369912 -0.0230122 1.51631 -0.036961 -0.023042 1.51609 -0.0370985 -0.0231433 1.5162 
-0.0371272 -0.0231142 1.51641 -0.0370124 -0.0229858 1.51655 -0.0368734 -0.0228848 1.51643 
-0.0368569 -0.0229115 1.51621 -0.036525 -0.0225603 1.51772 -0.0366608 -0.0226396 1.51759 
-0.0366747 -0.0226407 1.5178 -0.0363691 -0.0224778 1.51766 -0.0365022 -0.0225555 1.5175 
-0.036415 -0.022497 1.51784 -0.0365344 -0.0225608 1.51793 -0.0379804 -0.0250624 1.51536 
-0.0378601 -0.0248262 1.51526 -0.0378772 -0.0250955 1.51517 -0.0380633 -0.0250976 1.51553 
-0.037993 -0.0248641 1.51552 -0.0383998 -0.0254325 1.51671 -0.0384312 -0.0255943 1.51681 
-0.0384446 -0.0254448 1.51694 -0.038357 -0.0252706 1.51658 -0.0383937 -0.0252431 1.51679 
-0.0375136 -0.0234425 1.51676 -0.0376023 -0.0235985 1.51665 -0.0376367 -0.0235679 1.51686 
-0.0373914 -0.0233296 1.51665 -0.0374848 -0.0234794 1.51653 -0.0375419 -0.0234047 1.51696 
-0.0374226 -0.023298 1.51686 -0.0378684 -0.0276932 1.51634 -0.0379204 -0.0275085 1.51631 
-0.0378065 -0.0276247 1.51619 -0.037932 -0.0277679 1.5165 -0.0379795 -0.0275809 1.51647 
-0.0379717 -0.025872 1.51531 -0.0378681 -0.0259993 1.51519 -0.0378831 -0.0258157 1.51516 
-0.0380376 -0.0259384 1.51547 -0.0380491 -0.0257422 1.51542 -0.0379754 -0.0256705 1.51526 
-0.036695 -0.0277165 1.51513 -0.0370364 -0.0275509 1.51526 -0.0370737 -0.0278216 1.5155 
-0.037967 -0.0277969 1.52009 -0.0379784 -0.0276265 1.5202 -0.0380639 -0.0276726 1.51999 
-0.0380201 -0.0278528 1.51993 -0.0379093 -0.0279647 1.52006 -0.0378583 -0.0278649 1.52026 
-0.038437 -0.0263249 1.51971 -0.0384877 -0.026254 1.51949 -0.0384896 -0.0264427 1.51956 
-0.0383674 -0.0261661 1.51984 -0.0384231 -0.0261003 1.51966 -0.0383736 -0.0263777 1.51989 
-0.038445 -0.026576 1.51973 -0.0379302 -0.0287174 1.51911 -0.0378913 -0.0286739 1.5193 
-0.0380151 -0.0285539 1.51919 -0.0378106 -0.0288301 1.51922 -0.0380501 -0.0285992 1.51899 
-0.0379533 -0.0287422 1.51889 -0.037834 -0.0288621 1.51901 -0.0378851 -0.0286559 1.51734 
-0.0378582 -0.0286201 1.51714 -0.0379614 -0.0284951 1.51726 -0.0377957 -0.0288083 1.51742 
-0.0378992 -0.0286827 1.51754 -0.037989 -0.0285298 1.51746 -0.037968 -0.0287576 1.51821 
-0.0379704 -0.0287606 1.51843 -0.038085 -0.0286386 1.51832 -0.0378472 -0.0288757 1.51809 
-0.0378549 -0.0288834 1.51832 -0.0380741 -0.0286223 1.5181 -0.0379482 -0.0287377 1.51798 
-0.0374973 -0.0292437 1.51774 -0.0376034 -0.0291078 1.51763 -0.037495 -0.0292388 1.51751 
-0.0373755 -0.0293636 1.51762 -0.0373794 -0.0293638 1.51785 -0.0375002 -0.0292452 1.51797 
-0.0376112 -0.0291175 1.51786 -0.034076 -0.0259397 1.52383 -0.0342201 -0.0257961 1.52375 
-0.0342494 -0.026024 1.52376 -0.0339354 -0.0260833 1.52394 -0.0339034 -0.0258755 1.5239 
-0.0341016 -0.0261658 1.52386 -0.0340423 -0.0257268 1.52381 -0.0369793 -0.0239952 1.52103 
-0.0371074 -0.0241065 1.52092 -0.0370211 -0.0241911 1.52107 -0.0368866 -0.0240835 1.52118 
-0.037069 -0.0239178 1.52088 -0.034571 -0.0244744 1.5234 -0.0347245 -0.0245515 1.52332 
-0.0345808 -0.0246932 1.5234 -0.0344152 -0.0246168 1.52348 -0.0344131 -0.0243827 1.52348 
-0.0347197 -0.0243371 1.52331 -0.034567 -0.024248 1.52339 -0.0379567 -0.023985 1.51913 
-0.0380723 -0.0241065 1.519 -0.0380264 -0.0241581 1.5192 -0.0379051 -0.0240325 1.51932 
-0.0378308 -0.0238715 1.51924 -0.0380023 -0.0239359 1.51894 -0.0379982 -0.0239343 1.51723 
-0.0381034 -0.0240666 1.51736 -0.0380336 -0.0238992 1.51744 -0.0379259 -0.0237752 1.51731 
-0.0379493 -0.0239638 1.51702 -0.0380607 -0.0240993 1.51714 -0.0378813 -0.0238065 1.5171 
-0.0356012 -0.0215564 1.52155 -0.0354663 -0.0214072 1.52165 -0.0355741 -0.0213124 1.52154 
-0.0356135 -0.0218261 1.52158 -0.0354649 -0.0217005 1.52169 -0.0357217 -0.0217 1.52144 
-0.0357019 -0.0214712 1.52142 -0.0360544 -0.0220829 1.52104 -0.0359588 -0.0219543 1.52119 
-0.0360166 -0.0218814 1.521 -0.0359944 -0.0221652 1.52122 -0.0361331 -0.0222208 1.5209 
-0.0360911 -0.0222822 1.52108 -0.0360891 -0.0220269 1.52084 -0.0360367 -0.0220391 1.52007 
-0.0361364 -0.0221706 1.52019 -0.0360636 -0.0219927 1.52027 -0.0359361 -0.0219289 1.51997 
-0.0360027 -0.0220763 1.51988 -0.035976 -0.021866 1.52015 -0.0361167 -0.0222042 1.51995 
-0.0355544 -0.0216088 1.5197 -0.0354575 -0.02167 1.51953 -0.0356188 -0.0217738 1.51961 
-0.0372881 -0.0234662 1.51967 -0.037251 -0.0234944 1.51987 -0.03716 -0.0233482 1.51978 
-0.0371906 -0.0233133 1.51958 -0.0373285 -0.0234212 1.51946 -0.0364617 -0.0225937 1.51958 
-0.0365866 -0.0227136 1.51972 -0.0364758 -0.0226149 1.51982 -0.0364998 -0.0226076 1.51936 
-0.0365945 -0.0227013 1.51948 -0.0370175 -0.0229846 1.51916 -0.0371265 -0.0231096 1.51926 
-0.0369809 -0.0230119 1.51937 -0.0368741 -0.0228993 1.51928 -0.0370572 -0.0229647 1.51895 
-0.0371691 -0.023085 1.51907 -0.0368989 -0.022867 1.51906 -0.0365327 -0.0225634 1.51865 
-0.0365308 -0.0225565 1.51839 -0.0367002 -0.0226617 1.51853 -0.0365122 -0.0225627 1.51887 
-0.0363798 -0.0224736 1.51874 -0.0366651 -0.0226549 1.51878 -0.0363821 -0.0224702 1.51851 
-0.0332306 -0.028738 1.52206 -0.0333003 -0.0286727 1.52222 -0.0334619 -0.0287323 1.52209 
-0.0333583 -0.0288227 1.52191 -0.0331299 -0.0288159 1.52187 -0.0330002 -0.0287295 1.52202 
-0.0330867 -0.0286663 1.5222 -0.0341178 -0.0287232 1.522 -0.0343292 -0.0286981 1.52197 
-0.03421 -0.0288063 1.52185 -0.0339897 -0.0288259 1.52187 -0.0340428 -0.0286377 1.52215 
-0.0342385 -0.028617 1.52212 -0.0338994 -0.0287429 1.52203 -0.03413 -0.0268348 1.5239 
-0.0339993 -0.0269442 1.52401 -0.0339978 -0.0267277 1.524 -0.0342558 -0.0269497 1.52378 
-0.0341205 -0.0270537 1.52389 -0.0341292 -0.0266087 1.52389 -0.0342667 -0.026719 1.52379 
-0.0364495 -0.0281855 1.52148 -0.0362609 -0.0282428 1.52153 -0.0363319 -0.0280726 1.5216 
-0.0366327 -0.0281266 1.52143 -0.0365162 -0.028011 1.52155 -0.0369758 -0.0296716 1.51818 
-0.0371179 -0.029576 1.51808 -0.0369854 -0.0296787 1.51797 -0.0368306 -0.0297606 1.51828 
-0.0369633 -0.0296573 1.51841 -0.0368499 -0.0297632 1.51807 -0.0371059 -0.0295661 1.51831 
-0.0374928 -0.0292387 1.51867 -0.037359 -0.0293459 1.51878 -0.0374854 -0.0292334 1.5189 
-0.0376123 -0.0291189 1.51879 -0.0376176 -0.029124 1.51855 -0.0374972 -0.0292422 1.51844 
-0.0373668 -0.0293511 1.51855 -0.0364676 -0.0291845 1.52055 -0.036556 -0.0292657 1.5204 
-0.0363651 -0.0293091 1.52045 -0.0362698 -0.0292269 1.52059 -0.0363797 -0.0290931 1.5207 
-0.0369184 -0.0296194 1.51907 -0.0368966 -0.0296075 1.51928 -0.0370527 -0.0295248 1.5192 
-0.0370676 -0.029531 1.51898 -0.0369305 -0.0296302 1.51885 -0.0367495 -0.0297072 1.51914 
-0.036773 -0.029719 1.51893 -0.0374126 -0.0291585 1.51955 -0.0373108 -0.0292931 1.51945 
-0.0372695 -0.029259 1.51965 -0.0373692 -0.0291096 1.51975 -0.0375087 -0.0290124 1.51965 
-0.0375503 -0.0290552 1.51944 -0.0374469 -0.0291942 1.51934 -0.0351229 -0.0297205 1.52018 
-0.0353351 -0.0297046 1.52014 -0.0351872 -0.0297698 1.51999 -0.035276 -0.0296471 1.52033 
-0.0350697 -0.0296599 1.52038 -0.0349578 -0.0297738 1.52005 -0.0348934 -0.0297135 1.52027 
-0.035972 -0.0296425 1.52006 -0.0361823 -0.0296181 1.52002 -0.036043 -0.0297087 1.51988 
-0.0358323 -0.0297314 1.51991 -0.0357652 -0.0296646 1.52009 -0.0361103 -0.0295421 1.52019 
-0.0358999 -0.0295676 1.52022 -0.0351133 -0.0268875 1.51436 -0.0353247 -0.0268611 1.51438 
-0.035205 -0.0266615 1.5143 -0.0348901 -0.0269108 1.51435 -0.0350193 -0.0270793 1.51442 
-0.0352509 -0.0270379 1.51443 -0.0349757 -0.0267348 1.5143 -0.032211 -0.0265945 1.51529 
-0.0321051 -0.0266983 1.51542 -0.0321471 -0.0269012 1.51547 -0.0322944 -0.0269873 1.51537 
-0.0326572 -0.0263702 1.51482 -0.0327751 -0.0262467 1.5147 -0.0326127 -0.0261635 1.51478 
-0.0325532 -0.0264794 1.51494 -0.0327097 -0.0265738 1.51486 -0.0328206 -0.0264527 1.51473 
-0.0325042 -0.0262753 1.5149 -0.0331886 -0.0258321 1.51439 -0.0333405 -0.0256607 1.51432 
-0.0331686 -0.0256045 1.5144 -0.0330132 -0.0257596 1.51448 -0.033365 -0.0258904 1.51431 
-0.0332241 -0.0260476 1.51441 -0.0330353 -0.0259728 1.51449 -0.0341348 -0.0268361 1.51436 
-0.0340732 -0.0266591 1.51431 -0.0339287 -0.0268011 1.5144 -0.0339861 -0.0269866 1.51446 
-0.03435 -0.0268522 1.51434 -0.0342699 -0.0266715 1.51429 -0.0341999 -0.0270217 1.51443 
-0.0307723 -0.0263729 1.51674 -0.0309096 -0.0264688 1.51664 -0.0308636 -0.0262714 1.5166 
-0.0306748 -0.0264588 1.51687 -0.0307287 -0.0261733 1.51669 -0.0306299 -0.0262672 1.51683 
-0.0313998 -0.0266996 1.51618 -0.0311052 -0.0267848 1.51659 -0.0314495 -0.0268796 1.51623 
-0.033141 -0.0297198 1.51915 -0.0329995 -0.0296379 1.5193 -0.0331862 -0.0296893 1.51935 
-0.0329607 -0.0296643 1.51911 -0.0332671 -0.0297802 1.51901 -0.0330937 -0.0297442 1.51894 
-0.0333519 -0.0297617 1.51919 -0.029856 -0.0272987 1.51872 -0.0297209 -0.0271991 1.51882 
-0.0298145 -0.0273439 1.51893 -0.0299471 -0.0274486 1.5188 -0.0299988 -0.0273988 1.51861 
-0.029915 -0.027248 1.51853 -0.0297773 -0.0271487 1.51862 -0.0308392 -0.0282137 1.51957 
-0.0308172 -0.0282307 1.51935 -0.0306852 -0.0281333 1.51948 -0.0309685 -0.0283139 1.51944 
-0.0309908 -0.0283006 1.51966 -0.0308613 -0.0281969 1.51977 -0.0307106 -0.0281076 1.5197 
-0.0321783 -0.0287853 1.5211 -0.0321465 -0.0288137 1.52089 -0.0320124 -0.0287138 1.52103 
-0.0323174 -0.0288899 1.52095 -0.0323511 -0.028854 1.52117 -0.0322192 -0.0287608 1.5213 
-0.0320367 -0.0286899 1.52123 -0.0327327 -0.0291941 1.52055 -0.0325545 -0.0291327 1.52049 
-0.0325962 -0.0290983 1.52068 -0.0327697 -0.0291478 1.52075 -0.0329089 -0.0292451 1.52061 
-0.0328712 -0.0292975 1.52042 -0.0326904 -0.0292363 1.52035 -0.0303554 -0.0277539 1.52005 
-0.0303181 -0.0277874 1.51985 -0.030208 -0.0276538 1.51995 -0.0302499 -0.0276168 1.52015 
-0.0304694 -0.0278813 1.51994 -0.0303876 -0.0277155 1.52025 -0.0304993 -0.0278483 1.52014 
-0.0308166 -0.0244812 1.52245 -0.0307699 -0.0244162 1.52228 -0.0308623 -0.024282 1.52242 
-0.0307255 -0.0246134 1.52232 -0.0309068 -0.0243514 1.52258 -0.0307717 -0.024685 1.52248 
-0.0308772 -0.0245427 1.52263 -0.0303037 -0.0258369 1.52204 -0.0303053 -0.0260655 1.52205 
-0.0302051 -0.0259589 1.5219 -0.0303106 -0.0256195 1.52203 -0.0303957 -0.0257041 1.52218 
-0.0303952 -0.0259293 1.5222 -0.0302105 -0.0257445 1.52189 -0.030383 -0.0267445 1.52197 
-0.0303462 -0.026534 1.52202 -0.0304437 -0.0266726 1.52217 -0.0304313 -0.0269472 1.5219 
-0.0303249 -0.026811 1.52177 -0.0304855 -0.0268913 1.5221 -0.0302734 -0.0266082 1.52182 
-0.0293657 -0.0268309 1.51913 -0.0293784 -0.0268019 1.51934 -0.0294632 -0.0269607 1.51925 
-0.0292697 -0.0266697 1.51921 -0.0293866 -0.0268293 1.51893 -0.0292976 -0.0267221 1.51902 
-0.0294688 -0.0269689 1.51904 -0.0297922 -0.0273278 1.5196 -0.0296698 -0.0272105 1.51949 
-0.0299024 -0.0274736 1.5195 -0.0297844 -0.0273669 1.51937 -0.0298371 -0.0272966 1.51982 
-0.0299327 -0.0274466 1.51972 -0.0313087 -0.023952 1.52387 -0.0312476 -0.0239752 1.52366 
-0.0311543 -0.0238785 1.52381 -0.0313415 -0.0239196 1.52406 -0.0314751 -0.0240165 1.52393 
-0.0311702 -0.023855 1.524 -0.0314206 -0.0240627 1.52374 -0.0312964 -0.0221105 1.52294 
-0.031506 -0.022059 1.52287 -0.0311504 -0.0221709 1.52299 -0.0312358 -0.0222764 1.52286 
-0.0312973 -0.0259108 1.52389 -0.0314707 -0.0258493 1.52395 -0.0313588 -0.02597 1.52406 
-0.0312281 -0.0258351 1.52372 -0.0313966 -0.0257713 1.52378 -0.030853 -0.0263699 1.52434 
-0.0309658 -0.0262617 1.52422 -0.0310119 -0.0262809 1.52442 -0.0307066 -0.0264825 1.52426 
-0.0308134 -0.0263521 1.52413 -0.0308849 -0.02638 1.52455 -0.030736 -0.0264859 1.52448 
-0.0336771 -0.0272818 1.52446 -0.03377 -0.0274006 1.52428 -0.0336408 -0.0275515 1.52452 
-0.0335926 -0.0273761 1.52463 -0.0336021 -0.0271499 1.52457 -0.0336721 -0.0270603 1.52442 
-0.033772 -0.0271679 1.52428 -0.0341322 -0.0296829 1.52011 -0.034326 -0.0297072 1.52013 
-0.0342982 -0.0297465 1.51993 -0.0339708 -0.0296253 1.52027 -0.0341728 -0.0296485 1.5203 
-0.033945 -0.0296617 1.52008 -0.0340951 -0.0297197 1.51991 -0.0308353 -0.02824 1.51874 
-0.0307142 -0.0281219 1.51861 -0.0306737 -0.02814 1.51882 -0.0307982 -0.0282349 1.51894 
-0.0308541 -0.0282155 1.51854 -0.0346658 -0.02822 1.51492 -0.0344546 -0.0281994 1.51493 
-0.0345271 -0.0283565 1.51501 -0.0347439 -0.0283782 1.51501 -0.0346041 -0.0280646 1.51483 
-0.0348466 -0.0281031 1.51484 -0.0348443 -0.0282634 1.51494 -0.0360538 -0.0287713 1.51551 
-0.0359691 -0.0289332 1.5156 -0.036165 -0.0288867 1.51564 -0.0369384 -0.0296728 1.51733 
-0.036775 -0.0297517 1.51725 -0.0368084 -0.0297789 1.51745 -0.0369674 -0.0296838 1.51754 
-0.0370934 -0.0295786 1.51742 -0.036893 -0.0296258 1.51713 -0.0354866 -0.0272097 1.52262 
-0.0355806 -0.0275623 1.52226 -0.0345927 -0.0282665 1.52247 -0.0346756 -0.028324 1.52232 
-0.0345456 -0.0281891 1.52263 -0.0359805 -0.0277268 1.52194 -0.0359308 -0.0279057 1.52188 
-0.0358072 -0.02779 1.522 -0.0360274 -0.0275411 1.522 -0.0361463 -0.0276498 1.52189 
-0.0361036 -0.0278429 1.52183 -0.0358594 -0.027605 1.52206 -0.0351031 -0.023956 1.52297 
-0.0349798 -0.0240774 1.52308 -0.0349579 -0.0238642 1.52306 -0.0352568 -0.0240598 1.52289 
-0.0351309 -0.0241754 1.523 -0.0350782 -0.0237457 1.52294 -0.0352235 -0.0238452 1.52286 
-0.0361236 -0.0241132 1.52211 -0.0362055 -0.0240253 1.52195 -0.0363326 -0.0241297 1.52185 
-0.0362511 -0.0242167 1.522 -0.0362901 -0.0239397 1.5218 -0.0355387 -0.0235405 1.52246 
-0.0354405 -0.0236303 1.5226 -0.0354001 -0.0234317 1.52255 -0.0356338 -0.0234404 1.52232 
-0.0356748 -0.0236316 1.52237 -0.0355816 -0.0237405 1.52251 -0.0354943 -0.0233426 1.52241 
-0.0383648 -0.0282288 1.51861 -0.0382727 -0.0283554 1.51874 -0.0383485 -0.028202 1.51881 
-0.0382847 -0.0283783 1.51854 -0.0384272 -0.0280761 1.51868 -0.0384305 -0.0281042 1.51845 
-0.0383584 -0.0282635 1.51844 -0.0384128 -0.0263085 1.51678 -0.0384682 -0.026377 1.51697 
-0.0384781 -0.0261395 1.51696 -0.0383917 -0.0265521 1.51681 -0.0383298 -0.0264899 1.51663 
-0.0383581 -0.0262441 1.51659 -0.038421 -0.0260544 1.51673 -0.0332071 -0.0220864 1.51727 
-0.0330747 -0.0221321 1.51714 -0.0332569 -0.0221247 1.51708 -0.0334176 -0.0220644 1.51724 
-0.0331525 -0.0220402 1.51746 -0.0329999 -0.0221084 1.5173 -0.0333639 -0.0220119 1.51742 
-0.0336744 -0.0225012 1.51582 -0.0334765 -0.0225497 1.51587 -0.0338437 -0.0224621 1.51577 
-0.033786 -0.0223996 1.51596 -0.0336015 -0.0224428 1.51599 -0.0341944 -0.0296623 1.51632 
-0.0339816 -0.0296301 1.51634 -0.0341228 -0.0297243 1.51649 -0.0343722 -0.0297223 1.51646 
-0.0342719 -0.0295803 1.51616 -0.0340534 -0.0295492 1.51619 -0.0344203 -0.029662 1.51629 
-0.0332302 -0.0296534 1.51731 -0.033363 -0.0297475 1.51745 -0.0334024 -0.0297272 1.51725 
-0.0331024 -0.0295486 1.51719 -0.033065 -0.0295789 1.51738 -0.0331921 -0.0296765 1.51751 
-0.0332697 -0.0296256 1.51711 -0.0332247 -0.0220197 1.52392 -0.0333299 -0.0221671 1.52402 
-0.0331889 -0.0220674 1.52411 -0.0333738 -0.0221155 1.52382 -0.0330825 -0.0219364 1.52402 
-0.0330923 -0.0219028 1.52382 -0.0332462 -0.0219834 1.52372 -0.0339667 -0.0224686 1.52346 
-0.0339832 -0.0222228 1.52302 -0.0338011 -0.0221526 1.52308 -0.0339638 -0.0227398 1.52369 
-0.0338162 -0.0226405 1.5238 -0.0338963 -0.0225509 1.52363 -0.0340124 -0.0226149 1.52355 
-0.0340013 -0.0229304 1.52374 -0.0338597 -0.0228386 1.52384 -0.0342795 -0.0226291 1.52326 
-0.0334018 -0.0223348 1.5241 -0.0335362 -0.0224432 1.524 -0.0334567 -0.0225242 1.52416 
-0.0332678 -0.0222276 1.5242 -0.0334628 -0.022267 1.52392 -0.0333283 -0.0224105 1.52427 
-0.0329405 -0.0218178 1.52372 -0.0329542 -0.0218257 1.52393 -0.033088 -0.0218872 1.5236 
-0.0327734 -0.0217493 1.52363 -0.0329172 -0.0218268 1.52351 -0.0334638 -0.029871 1.51801 
-0.033648 -0.0299115 1.51794 -0.0334936 -0.0298467 1.51779 -0.0333121 -0.0297921 1.51786 
-0.0332832 -0.0298198 1.51809 -0.0334289 -0.029884 1.51822 -0.0336159 -0.0299289 1.51815 
-0.0338338 -0.0299509 1.51789 -0.0338786 -0.0299375 1.51768 -0.0336915 -0.0298956 1.51774 
-0.0340425 -0.0299968 1.51783 -0.0337653 -0.0299547 1.51806 -0.033987 -0.0300084 1.51806 
-0.0329033 -0.029507 1.51746 -0.032733 -0.0294351 1.51754 -0.032859 -0.0295341 1.51767 
-0.0329386 -0.0294748 1.51726 -0.0330327 -0.0296055 1.51759 -0.0327759 -0.0294025 1.51734 
-0.0331426 -0.0295122 1.51699 -0.0327026 -0.0292265 1.51703 -0.0331664 -0.0297017 1.51772 
-0.0329879 -0.0296311 1.51779 -0.0331315 -0.0297287 1.51793 -0.0333372 -0.0297681 1.51766 
-0.033903 -0.0299173 1.51747 -0.0339297 -0.0298945 1.51727 -0.0337379 -0.0298538 1.51733 
-0.0341002 -0.0299509 1.51741 -0.033717 -0.0298772 1.51753 -0.034071 -0.0299777 1.51761 
-0.0335502 -0.0294922 1.51638 -0.0332056 -0.0293846 1.5166 -0.0330566 -0.0291416 1.51645 
-0.0331463 -0.0290747 1.51627 -0.0331075 -0.0292665 1.51655 -0.0343935 -0.0298697 1.51698 
-0.0342514 -0.0298319 1.51683 -0.0342043 -0.0298835 1.51703 -0.0343956 -0.0299301 1.51721 
-0.0346786 -0.0298885 1.51705 -0.0345278 -0.0298145 1.51679 -0.0349489 -0.029888 1.51701 
-0.0348129 -0.0298295 1.51681 -0.0351411 -0.0298827 1.51696 -0.035044 -0.0298336 1.51678 
-0.0343696 -0.029483 1.51601 -0.0341569 -0.0294676 1.51605 -0.034466 -0.0293882 1.51587 
-0.0342526 -0.0293653 1.51591 -0.0345054 -0.0295796 1.51613 -0.034582 -0.0294921 1.51599 
-0.0346139 -0.0296581 1.51627 -0.0347097 -0.0295784 1.51613 -0.0345453 -0.0297237 1.51646 
-0.0347006 -0.0297096 1.5164 -0.0337432 -0.0291847 1.5159 -0.0338502 -0.0294976 1.51621 
-0.0379119 -0.027235 1.52053 -0.0380143 -0.027108 1.52041 -0.0379833 -0.02732 1.52037 
-0.0379331 -0.0270213 1.52057 -0.0378773 -0.027449 1.5205 -0.0378016 -0.0273618 1.52067 
-0.037826 -0.027152 1.5207 -0.0370108 -0.0263752 1.52156 -0.0369826 -0.0266011 1.52157 
-0.0368698 -0.0264685 1.52165 -0.0371147 -0.0265036 1.52149 -0.0370254 -0.0261624 1.52157 
-0.037154 -0.0263044 1.52147 -0.0368873 -0.0262439 1.52166 -0.0377311 -0.0270301 1.52086 
-0.037739 -0.026793 1.52087 -0.0378374 -0.0269156 1.52072 -0.0376152 -0.0269144 1.52103 
-0.0377156 -0.0272669 1.52083 -0.0376225 -0.0271592 1.52099 -0.0376766 -0.0256438 1.52081 
-0.0375886 -0.0256944 1.52096 -0.0377973 -0.0257626 1.52068 -0.0376351 -0.0254774 1.52082 
-0.0377699 -0.0255411 1.52065 -0.0375631 -0.0255299 1.52095 -0.0374695 -0.025435 1.52106 
-0.0374423 -0.0252136 1.52102 -0.0375583 -0.0253587 1.5209 -0.0373589 -0.0253057 1.52117 
-0.0374836 -0.0256592 1.5211 -0.0373794 -0.025551 1.52121 -0.0382358 -0.0256094 1.51991 
-0.0382964 -0.0255532 1.51973 -0.0383212 -0.02575 1.51976 -0.0382087 -0.0254123 1.51987 
-0.0382583 -0.0258207 1.51995 -0.0381702 -0.0256792 1.52008 -0.0381384 -0.0254739 1.52005 
-0.0379193 -0.0259004 1.52055 -0.037933 -0.0261256 1.52057 -0.0378224 -0.0259962 1.5207 
-0.0378938 -0.0256897 1.52053 -0.0380139 -0.0258248 1.5204 -0.0380311 -0.0260368 1.52043 
-0.0381356 -0.0261729 1.5203 -0.0381351 -0.0263717 1.52032 -0.0380359 -0.0262498 1.52044 
-0.0382281 -0.0263117 1.52017 -0.038117 -0.0259591 1.52028 -0.0382179 -0.026101 1.52015 
-0.037173 -0.0260887 1.52146 -0.0369012 -0.0260103 1.52167 -0.0369137 -0.025782 1.52168 
-0.0370348 -0.0256467 1.52157 -0.0371569 -0.0255236 1.52145 -0.0374141 -0.0257595 1.52121 
-0.0372616 -0.0254319 1.52133 -0.0381161 -0.0269818 1.52028 -0.0382129 -0.0268425 1.52015 
-0.0381859 -0.0270751 1.52012 -0.0380343 -0.0269001 1.52043 -0.0381305 -0.0267719 1.52031 
-0.0380847 -0.0271992 1.52025 -0.0379411 -0.0267951 1.52058 -0.0379377 -0.0265704 1.52058 
-0.0380366 -0.0266801 1.52045 -0.0378406 -0.0266799 1.52072 -0.038127 -0.026561 1.52033 
-0.0380326 -0.0264645 1.52045 -0.0382049 -0.0264732 1.52021 -0.0382184 -0.0266362 1.52018 
-0.0333602 -0.0226696 1.51574 -0.0335102 -0.0228349 1.51542 -0.034506 -0.0221287 1.51679 
-0.0343238 -0.0220894 1.51695 -0.0342922 -0.0221547 1.51671 -0.0344329 -0.0221649 1.51659 
-0.0346069 -0.0221558 1.5166 -0.0347277 -0.0221286 1.51681 -0.0346297 -0.0220652 1.51704 
-0.0327419 -0.0225367 1.51632 -0.0326247 -0.0226715 1.51621 -0.0328724 -0.022423 1.51644 
-0.0326715 -0.0224573 1.51647 -0.0325541 -0.0225842 1.51636 -0.0324784 -0.0222636 1.51702 
-0.0324502 -0.0222364 1.51721 -0.0322925 -0.0223124 1.51708 -0.0325388 -0.022296 1.51683 
-0.032681 -0.0222223 1.51698 -0.0326378 -0.0221994 1.51716 -0.0323353 -0.0223452 1.51688 
-0.0342798 -0.021884 1.51755 -0.0342371 -0.0219492 1.51736 -0.0344661 -0.0219394 1.51742 
-0.0340752 -0.0219048 1.51749 -0.0344557 -0.0218862 1.51761 -0.0343268 -0.0218356 1.51773 
-0.0341158 -0.0218319 1.5177 -0.0338943 -0.0219311 1.51745 -0.0337866 -0.0219805 1.51734 
-0.0339907 -0.0219746 1.51731 -0.0338876 -0.0218631 1.51763 -0.0337167 -0.0219214 1.51752 
-0.033622 -0.0220502 1.5172 -0.0336799 -0.0221011 1.51702 -0.0338302 -0.0220334 1.51718 
-0.0334614 -0.0221122 1.51705 -0.0335685 -0.021994 1.51738 -0.0346486 -0.0219942 1.5173 
-0.0344128 -0.0220057 1.5172 -0.0343643 -0.0222472 1.51602 -0.0343167 -0.0222297 1.51623 
-0.0341472 -0.0222784 1.51607 -0.034566 -0.022208 1.51617 -0.0345326 -0.0222318 1.51595 
-0.0344022 -0.0222755 1.51583 -0.0341931 -0.0223067 1.51587 -0.0339326 -0.0223148 1.5161 
-0.034084 -0.0222555 1.51626 -0.0337298 -0.022358 1.51612 -0.0339865 -0.0223533 1.51591 
-0.0338553 -0.0222885 1.51627 -0.0330067 -0.0223169 1.51658 -0.033203 -0.022295 1.51655 
-0.0331454 -0.0222301 1.51673 -0.0329467 -0.0222442 1.51676 -0.0328035 -0.0223384 1.51661 
-0.0330673 -0.0223923 1.51641 -0.034554 -0.0211185 1.52204 -0.0348178 -0.0211552 1.52198 
-0.0346062 -0.0213249 1.52202 -0.0343977 -0.0212695 1.52206 -0.0347014 -0.0209693 1.52205 
-0.0350094 -0.021682 1.52196 -0.0348787 -0.0218025 1.52205 -0.0348343 -0.021616 1.52201 
-0.0349557 -0.0215071 1.52194 -0.0351398 -0.0215059 1.52187 -0.0351784 -0.021732 1.52189 
-0.0384694 -0.0256836 1.51696 -0.0384812 -0.0259099 1.51696 -0.0383694 -0.0267649 1.51683 
-0.038449 -0.0266206 1.51698 -0.0383054 -0.0266988 1.51666 -0.0382724 -0.026919 1.51669 
-0.0384319 -0.0268318 1.51701 -0.0383479 -0.0269615 1.51688 -0.0381879 -0.0261146 1.51602 
-0.0381537 -0.0263249 1.51607 -0.0382393 -0.0261586 1.5162 -0.0381038 -0.0262676 1.51589 
-0.0382131 -0.0259075 1.51597 -0.0381423 -0.0260565 1.51584 -0.0382624 -0.0259579 1.51616 
-0.0381674 -0.0270536 1.51654 -0.0382059 -0.0268482 1.51651 -0.0381053 -0.0269838 1.51637 
-0.0380633 -0.0271777 1.5164 -0.0382481 -0.0271031 1.51674 -0.0381362 -0.0272484 1.51659 
-0.0379624 -0.0273118 1.51627 -0.0380027 -0.0271187 1.51624 -0.0380262 -0.0273776 1.51644 
-0.037923 -0.0267961 1.51585 -0.0378802 -0.0269876 1.5159 -0.0379854 -0.0268585 1.51603 
-0.0380256 -0.0266617 1.51598 -0.0379632 -0.026607 1.5158 -0.0378482 -0.026741 1.51567 
-0.037805 -0.0269272 1.51573 -0.0381152 -0.0265182 1.51611 -0.0380817 -0.02673 1.51616 
-0.0380624 -0.0264685 1.51594 -0.0381758 -0.0265832 1.5163 -0.0382062 -0.0263777 1.51625 
-0.0384216 -0.0277693 1.51911 -0.0383176 -0.0279079 1.51927 -0.0383744 -0.027714 1.51932 
-0.0383691 -0.0279674 1.51907 -0.0384685 -0.0275629 1.51915 -0.0385008 -0.0276288 1.51893 
-0.038451 -0.0278346 1.51892 -0.0383744 -0.0282182 1.51828 -0.038354 -0.0281894 1.51807 
-0.0382842 -0.0283531 1.51814 -0.038445 -0.0280405 1.51822 -0.0382943 -0.0283793 1.51835 
-0.0381951 -0.0285125 1.51844 -0.0380853 -0.0286354 1.51855 -0.0381933 -0.0285081 1.51822 
-0.038184 -0.0285006 1.51865 -0.0381659 -0.0284781 1.51886 -0.0382505 -0.028319 1.51894 
-0.0381354 -0.0284379 1.51907 -0.0380712 -0.0286215 1.51877 -0.0356309 -0.0254068 1.52297 
-0.0355486 -0.0255914 1.52306 -0.0354585 -0.0253361 1.52309 -0.0357233 -0.0252472 1.52287 
-0.0357623 -0.0254133 1.52287 -0.0357344 -0.0255718 1.52291 -0.0355874 -0.0251913 1.52296 
-0.0353007 -0.0252327 1.52317 -0.0352632 -0.0250107 1.52313 -0.0354327 -0.0250921 1.52305 
-0.0351344 -0.0251529 1.52324 -0.035331 -0.025475 1.5232 -0.0351632 -0.0253598 1.52327 
-0.0348949 -0.0246412 1.52325 -0.03486 -0.024426 1.52323 -0.0350569 -0.0247219 1.52318 
-0.0349281 -0.0248685 1.52328 -0.0347521 -0.024792 1.52334 -0.0350248 -0.0244995 1.52314 
-0.0355498 -0.0249632 1.52293 -0.0357107 -0.0250583 1.52285 -0.0355416 -0.0247119 1.52287 
-0.0356772 -0.0248593 1.52282 -0.0353935 -0.0248662 1.52301 -0.0358491 -0.0251239 1.52276 
-0.0358145 -0.0249205 1.52274 -0.0359551 -0.0250096 1.52264 -0.0359764 -0.0252159 1.52266 
-0.0358667 -0.0253217 1.52277 -0.0358119 -0.0237266 1.52227 -0.0357177 -0.023829 1.52242 
-0.0358522 -0.0239169 1.52232 -0.0359063 -0.0236327 1.52212 -0.0357691 -0.0235333 1.52222 
-0.0359924 -0.0235424 1.52196 -0.0361191 -0.0236457 1.52186 -0.0359476 -0.0233473 1.52192 
-0.036079 -0.0234577 1.52182 -0.0358646 -0.0234442 1.52207 -0.0362489 -0.0237484 1.52175 
-0.0363419 -0.0236627 1.52161 -0.0363818 -0.0238555 1.52165 -0.0362096 -0.0235587 1.52171 
-0.036323 -0.0251573 1.5223 -0.0363001 -0.0249295 1.52229 -0.0364213 -0.0250417 1.52216 
-0.0362999 -0.0254062 1.52234 -0.0364337 -0.0252845 1.52218 -0.0360392 -0.0247145 1.52248 
-0.0359282 -0.0248195 1.52261 -0.0362596 -0.024715 1.52226 -0.0361298 -0.0246178 1.52236 
-0.036389 -0.02482 1.52215 -0.0362176 -0.0245103 1.52222 -0.0365128 -0.0249418 1.52202 
-0.0365378 -0.025169 1.52204 -0.0365952 -0.024834 1.52187 -0.0366349 -0.0250605 1.5219 
-0.0364692 -0.0247163 1.52199 -0.0348184 -0.0237678 1.52315 -0.0346921 -0.0238947 1.52328 
-0.0346811 -0.0236739 1.52325 -0.0347949 -0.0235605 1.52312 -0.0348355 -0.0239876 1.52318 
-0.0349364 -0.0236559 1.52303 -0.0348531 -0.0242058 1.5232 -0.0347085 -0.0241154 1.52329 
-0.0350023 -0.0242922 1.52311 -0.035339 -0.0237393 1.52274 -0.0353769 -0.0239494 1.52278 
-0.0354825 -0.0238351 1.52265 -0.0351945 -0.0236359 1.52282 -0.0353026 -0.0235337 1.52269 
-0.0349097 -0.0234502 1.523 -0.0383685 -0.0249889 1.51908 -0.0384073 -0.0251928 1.51912 
-0.0383242 -0.0250405 1.51928 -0.0383284 -0.0247979 1.51903 -0.0384136 -0.0249402 1.51887 
-0.038281 -0.0248439 1.51923 -0.0384477 -0.025145 1.51893 -0.0383397 -0.0243904 1.51823 
-0.0383566 -0.0244495 1.51802 -0.0384039 -0.0246056 1.51821 -0.0383462 -0.0244518 1.51841 
-0.0382925 -0.0242658 1.51834 -0.0382876 -0.0242409 1.51811 -0.0381751 -0.0242396 1.51887 
-0.0381308 -0.0242797 1.51907 -0.0381128 -0.0240623 1.51881 -0.0382598 -0.024365 1.51873 
-0.0382258 -0.024411 1.51894 -0.0382059 -0.0241952 1.51868 -0.0384433 -0.0248938 1.51866 
-0.0383929 -0.0247012 1.51863 -0.0384511 -0.0248306 1.51847 -0.0385008 -0.0250549 1.51849 
-0.0384845 -0.025102 1.51871 -0.0383663 -0.0247437 1.51883 -0.0367585 -0.0232641 1.52081 
-0.0366874 -0.023331 1.52099 -0.0368175 -0.0232049 1.52063 -0.0368975 -0.0233742 1.5207 
-0.0368317 -0.023439 1.52088 -0.0364783 -0.0230563 1.52102 -0.0363454 -0.0229484 1.52112 
-0.0365483 -0.0232275 1.52109 -0.0364077 -0.0228804 1.52095 -0.0364492 -0.022598 1.52005 
-0.0365767 -0.02272 1.51994 -0.0365588 -0.0227234 1.52016 -0.0363358 -0.0224718 1.52017 
-0.0363419 -0.0224811 1.51993 -0.0364398 -0.0226041 1.52027 -0.036232 -0.022315 1.5203 
-0.03633 -0.0224758 1.52039 -0.0362343 -0.022325 1.52054 -0.0361391 -0.0221201 1.52045 
-0.0362218 -0.0223267 1.52006 -0.0362146 -0.0223589 1.52075 -0.0361573 -0.0221712 1.52068 
-0.0363108 -0.022497 1.52062 -0.0362719 -0.0225372 1.52082 -0.0361764 -0.0224072 1.52095 
-0.0372716 -0.0237208 1.52034 -0.0371953 -0.0235546 1.52026 -0.037313 -0.0236735 1.52015 
-0.0371507 -0.0236059 1.52046 -0.0373319 -0.0239003 1.52041 -0.0372137 -0.0237776 1.52053 
-0.0373844 -0.0238425 1.52022 -0.0369467 -0.0233201 1.52051 -0.0370724 -0.0234369 1.52039 
-0.0369591 -0.0230536 1.51959 -0.0370917 -0.023161 1.51949 -0.037061 -0.0231993 1.51969 
-0.0368289 -0.0229428 1.51971 -0.0368498 -0.0229241 1.51949 -0.0369348 -0.0230754 1.5198 
-0.0367032 -0.0228321 1.51982 -0.0368072 -0.0229541 1.51993 -0.0366873 -0.0228426 1.52004 
-0.0367181 -0.0228231 1.5196 -0.036221 -0.0279576 1.52172 -0.0362738 -0.0277726 1.52178 
-0.0363958 -0.0278925 1.52166 -0.036152 -0.0281341 1.52165 -0.0363152 -0.0275814 1.52182 
-0.0361871 -0.0274585 1.52193 -0.036347 -0.0273841 1.52185 -0.0364847 -0.0275076 1.52174 
-0.0364398 -0.0277052 1.52171 -0.0360634 -0.0273416 1.52204 -0.036224 -0.0272578 1.52196 
-0.0359028 -0.0274172 1.52211 -0.0359433 -0.0272216 1.52215 -0.0361018 -0.0271419 1.52207 
-0.0343638 -0.0285009 1.52224 -0.0345721 -0.0284534 1.52221 -0.0344506 -0.02858 1.52209 
-0.0341675 -0.0285301 1.52227 -0.0355209 -0.0287019 1.52152 -0.0354241 -0.0288543 1.52143 
-0.0353209 -0.0287415 1.52156 -0.0357111 -0.0286568 1.52148 -0.0356186 -0.0288128 1.5214 
-0.0360704 -0.0282949 1.52158 -0.0358849 -0.0283436 1.52162 -0.0357449 -0.0279615 1.52194 
-0.0355627 -0.0280188 1.52199 -0.03563 -0.0278519 1.52206 -0.0354023 -0.0283292 1.52185 
-0.0350249 -0.0286677 1.52172 -0.0352017 -0.0281481 1.52212 -0.0353015 -0.0282363 1.52198 
-0.0351105 -0.0280626 1.52226 -0.0351226 -0.0287772 1.52159 -0.0352229 -0.0288877 1.52146 
-0.0350237 -0.0289103 1.52149 -0.0349231 -0.028806 1.52162 -0.0345364 -0.0286625 1.52194 
-0.0344182 -0.0287812 1.52182 -0.0347399 -0.0286174 1.52191 -0.0346269 -0.0287488 1.52179 
-0.0346544 -0.0285329 1.52206 -0.0357412 -0.0274898 1.52218 -0.035689 -0.0276736 1.52212 
-0.0357886 -0.0273035 1.52223 -0.0351289 -0.0276067 1.52277 -0.0350378 -0.027773 1.52269 
-0.0351315 -0.0273404 1.52301 -0.0352018 -0.0271439 1.52307 -0.0347497 -0.0278033 1.52302 
-0.0348122 -0.0280196 1.52263 -0.0346601 -0.0280625 1.52273 -0.0348308 -0.027898 1.52278 
-0.0349514 -0.0279268 1.52259 -0.0351164 -0.0278298 1.52251 -0.0352761 -0.0277363 1.52242 
-0.0351948 -0.0278988 1.52234 -0.0350302 -0.0279837 1.52242 -0.0371331 -0.0291142 1.51663 
-0.037312 -0.029046 1.51671 -0.0372938 -0.0287898 1.51643 -0.0374016 -0.0288829 1.51661 
-0.0369563 -0.0291771 1.51656 -0.0372782 -0.0292708 1.517 -0.0372095 -0.0291973 1.51681 
-0.0374433 -0.0291852 1.51709 -0.0373815 -0.0291213 1.51689 -0.0361934 -0.0298998 1.51707 
-0.0363999 -0.0298622 1.51712 -0.0363385 -0.0297904 1.51693 -0.0361338 -0.029829 1.51689 
-0.035953 -0.029928 1.51704 -0.0360278 -0.0299729 1.51722 -0.0362524 -0.0299449 1.51726 
-0.0357311 -0.0274819 1.51468 -0.0355827 -0.027341 1.5146 -0.0355211 -0.0275242 1.51465 
-0.0357995 -0.0273059 1.51463 -0.0356608 -0.027654 1.51474 -0.0358698 -0.0276246 1.51478 
-0.0359345 -0.0274481 1.51471 -0.0359986 -0.0277552 1.51488 -0.0359224 -0.0279293 1.51495 
-0.0361298 -0.0278834 1.51499 -0.036193 -0.0277116 1.51492 -0.0357977 -0.0277919 1.51484 
-0.0360661 -0.0275873 1.51482 -0.0364798 -0.0282295 1.51534 -0.0365526 -0.0280578 1.51527 
-0.0365871 -0.0283316 1.51547 -0.0362937 -0.0282834 1.51528 -0.0360444 -0.0280518 1.51505 
-0.0361756 -0.0281706 1.51516 -0.0357654 -0.0289732 1.51557 -0.0358755 -0.0290865 1.51569 
-0.0356482 -0.028852 1.51544 -0.0355598 -0.0290009 1.51553 -0.0344 -0.028488 1.51511 
-0.0346227 -0.0285096 1.5151 -0.0344975 -0.0286423 1.51519 -0.0343129 -0.0283337 1.51503 
-0.0341771 -0.0284681 1.51512 -0.0352907 -0.0275756 1.51463 -0.03546 -0.0277036 1.51471 
-0.0350869 -0.0276289 1.51463 -0.0352558 -0.0277427 1.5147 -0.035109 -0.0274332 1.51456 
-0.0353603 -0.0273946 1.51458 -0.0355331 -0.0287294 1.51532 -0.0356213 -0.028577 1.51524 
-0.0354123 -0.0286136 1.51522 -0.0354337 -0.0288821 1.51541 -0.0353151 -0.0287668 1.5153 
-0.034847 -0.0285178 1.5151 -0.0349743 -0.0286771 1.51521 -0.0350644 -0.0285105 1.5151 
-0.0347328 -0.0286589 1.51519 -0.034942 -0.028384 1.51501 -0.0346237 -0.0287821 1.51528 
-0.0348647 -0.0288297 1.51531 -0.0324563 -0.0275438 1.51556 -0.0326137 -0.0276276 1.51548 
-0.0325515 -0.0274441 1.5154 -0.0323953 -0.0273638 1.51549 -0.0323019 -0.0274568 1.51565 
-0.0316958 -0.0287904 1.51967 -0.0318471 -0.02888 1.51976 -0.0318249 -0.0288967 1.51953 
-0.0316787 -0.0288059 1.51944 -0.031547 -0.0286995 1.51958 -0.0315782 -0.0286966 1.51979 
-0.0317243 -0.028779 1.51989 -0.0319601 -0.0290058 1.5194 -0.0318176 -0.0289177 1.51931 
-0.0319803 -0.0289879 1.51963 -0.0321146 -0.0290927 1.51951 -0.0320799 -0.0291037 1.51928 
-0.0319435 -0.0290207 1.51917 -0.0322028 -0.0292138 1.51916 -0.0323568 -0.0293054 1.51925 
-0.0323199 -0.0293352 1.51902 -0.0321743 -0.0292313 1.51895 -0.0320651 -0.0291219 1.51907 
-0.0322346 -0.0291944 1.51938 -0.0306157 -0.0279868 1.5185 -0.030755 -0.0280845 1.51841 
-0.0305678 -0.028023 1.5187 -0.0305161 -0.0278413 1.5184 -0.0304659 -0.0278882 1.5186 
-0.030657 -0.0279396 1.51829 -0.0308004 -0.0282371 1.51914 -0.0309486 -0.0283192 1.51922 
-0.0309109 -0.0283009 1.51904 -0.0306648 -0.028148 1.51926 -0.030664 -0.0281523 1.51904 
-0.0305375 -0.0280467 1.51892 -0.0303963 -0.0279486 1.51903 -0.0305214 -0.0280558 1.51915 
-0.0304238 -0.0279285 1.51881 -0.032177 -0.0292425 1.51817 -0.032213 -0.0292224 1.51797 
-0.0320696 -0.0291242 1.51805 -0.0320444 -0.0291429 1.51825 -0.0321575 -0.0292532 1.51837 
-0.0322961 -0.0293607 1.51829 -0.0323258 -0.0293416 1.51808 -0.0319662 -0.0290007 1.51794 
-0.0321067 -0.0290933 1.51785 -0.0319976 -0.028962 1.51775 -0.031852 -0.0288646 1.51784 
-0.0318226 -0.0288983 1.51803 -0.0319346 -0.0290262 1.51814 -0.0312576 -0.0282932 1.51776 
-0.0312805 -0.0284112 1.51798 -0.0311973 -0.0281343 1.51762 -0.0313176 -0.0282248 1.51756 
-0.0313796 -0.0284323 1.5178 -0.031414 -0.028377 1.51764 -0.0315505 -0.028466 1.51756 
-0.0315103 -0.0285242 1.51774 -0.0316429 -0.0286 1.51764 -0.0314644 -0.0283137 1.51747 
-0.0317476 -0.028733 1.51773 -0.0318914 -0.0288234 1.51764 -0.0316019 -0.0286414 1.51782 
-0.0317099 -0.0287679 1.51792 -0.034353 -0.0294896 1.52084 -0.0346106 -0.029478 1.52085 
-0.0345078 -0.0295633 1.5207 -0.0341572 -0.0294829 1.52082 -0.0342264 -0.0293865 1.52099 
-0.0344512 -0.0293866 1.52099 -0.0342922 -0.0295613 1.52067 -0.0346464 -0.0296218 1.52056 
-0.0346329 -0.0296828 1.52037 -0.0344445 -0.0296223 1.52053 -0.0347484 -0.0295506 1.52071 
-0.0348522 -0.0296372 1.5205 -0.0336381 -0.0297099 1.51964 -0.0335941 -0.0297457 1.51944 
-0.0334282 -0.0296858 1.51961 -0.033468 -0.0296505 1.51981 -0.0336881 -0.0296774 1.51983 
-0.0338569 -0.0297404 1.51965 -0.0338047 -0.0297743 1.51945 -0.0339179 -0.0294561 1.52081 
-0.0338584 -0.0295106 1.52063 -0.0337065 -0.0294275 1.52078 -0.0339994 -0.0293797 1.52098 
-0.0340687 -0.0295399 1.52065 -0.0337745 -0.0293627 1.52095 -0.0333896 -0.0295056 1.52037 
-0.0335614 -0.0295781 1.52021 -0.0333512 -0.0295553 1.52017 -0.033602 -0.0295325 1.52041 
-0.0331907 -0.0294637 1.52033 -0.0334569 -0.029449 1.52057 -0.0332448 -0.0294093 1.52053 
-0.0329216 -0.0294785 1.51987 -0.0327526 -0.0294099 1.51981 -0.0327877 -0.0293788 1.52001 
-0.0330747 -0.029578 1.51972 -0.032888 -0.0295126 1.51966 -0.0329602 -0.0294487 1.52007 
-0.0331066 -0.0295462 1.51993 -0.0337235 -0.0296385 1.52004 -0.0335185 -0.0296173 1.52001 
-0.0337603 -0.0296024 1.52024 -0.0339058 -0.0297028 1.51986 -0.033227 -0.0296567 1.51957 
-0.0330396 -0.0296112 1.51951 -0.033267 -0.0296229 1.51977 -0.0333899 -0.0297216 1.51941 
-0.0334991 -0.029394 1.52075 -0.0335655 -0.0293362 1.52093 -0.0336444 -0.0294807 1.5206 
-0.0332965 -0.0293573 1.52071 -0.0333503 -0.0293035 1.52089 -0.0322478 -0.0287157 1.52151 
-0.0323059 -0.0286749 1.5217 -0.0324455 -0.0287725 1.52156 -0.0324011 -0.0288214 1.52137 
-0.0320696 -0.0286589 1.52144 -0.0321205 -0.0286242 1.52165 -0.0320095 -0.028481 1.5223 
-0.0321421 -0.0285036 1.52249 -0.0322638 -0.0285363 1.52223 -0.0320542 -0.0285116 1.52206 
-0.0318775 -0.0284564 1.52215 -0.0318304 -0.0284359 1.52229 -0.032782 -0.0287078 1.52198 
-0.0325752 -0.028672 1.52193 -0.0326532 -0.0286297 1.52212 -0.0327024 -0.028758 1.52179 
-0.032915 -0.0287933 1.52183 -0.0328627 -0.028647 1.52217 -0.031987 -0.0285403 1.52181 
-0.0319387 -0.0285663 1.52159 -0.0317999 -0.0284812 1.52174 -0.0321766 -0.0285878 1.52185 
-0.0318405 -0.0284632 1.52197 -0.0313179 -0.0282226 1.52149 -0.0314744 -0.0283244 1.52158 
-0.031448 -0.0283293 1.52136 -0.0311759 -0.028121 1.5214 -0.0311941 -0.0281055 1.52162 
-0.0312992 -0.0282375 1.52127 -0.0313371 -0.0282123 1.52173 -0.0320055 -0.0285123 1.52294 
-0.0322365 -0.0285191 1.52293 -0.0323069 -0.0285222 1.5227 -0.032409 -0.0284962 1.52315 
-0.0321615 -0.028513 1.52315 -0.0323047 -0.0284881 1.52341 -0.032588 -0.0284463 1.52334 
-0.0326358 -0.028463 1.52312 -0.0324671 -0.0285103 1.52292 -0.0325259 -0.0285201 1.5227 
-0.0327446 -0.0285057 1.5227 -0.0326082 -0.0285395 1.5225 -0.0323945 -0.0285304 1.52248 
-0.0326812 -0.0284851 1.52291 -0.0310993 -0.0279684 1.52222 -0.0311027 -0.0279823 1.522 
-0.0309828 -0.0278365 1.52209 -0.0310858 -0.027978 1.52247 -0.0312143 -0.0280964 1.52236 
-0.0309584 -0.0277964 1.52234 -0.0312313 -0.0281003 1.5221 -0.031077 -0.0279802 1.52174 
-0.0310598 -0.0279979 1.52151 -0.03095 -0.0278656 1.52162 -0.0312109 -0.0280951 1.52186 
-0.0309667 -0.0278467 1.52185 -0.031344 -0.0281943 1.52198 -0.0313763 -0.0282194 1.52223 
-0.0315189 -0.0283105 1.52206 -0.0314915 -0.0283088 1.52182 -0.0315505 -0.0284953 1.52368 
-0.0317227 -0.0285195 1.52366 -0.0316126 -0.0284855 1.52345 -0.0319556 -0.0285095 1.52313 
-0.0317731 -0.0284966 1.52324 -0.0320226 -0.0285092 1.52335 -0.0317981 -0.0284855 1.52297 
-0.0318754 -0.0285127 1.5235 -0.0319398 -0.0285316 1.52379 -0.0321243 -0.0285017 1.52361 
-0.0315636 -0.0284519 1.52323 -0.0316106 -0.0284463 1.52306 -0.0314264 -0.0283795 1.5231 
-0.0309922 -0.0280699 1.52316 -0.0309581 -0.0281074 1.52338 -0.0311 -0.0282155 1.52328 
-0.0310273 -0.0280335 1.52294 -0.0308976 -0.0279106 1.52306 -0.0311301 -0.0281819 1.52306 
-0.0308568 -0.0279479 1.52327 -0.0310579 -0.0279955 1.52272 -0.0311927 -0.0281132 1.5226 
-0.0309675 -0.0278439 1.5226 -0.0309354 -0.0278727 1.52284 -0.0311626 -0.0281457 1.52284 
-0.0312841 -0.0282789 1.52297 -0.0314535 -0.0283619 1.52289 -0.0313164 -0.028249 1.52274 
-0.0308116 -0.0277395 1.52297 -0.0307678 -0.0277811 1.52318 -0.0307431 -0.0275537 1.52288 
-0.0306957 -0.0275972 1.5231 -0.0308489 -0.0277008 1.52275 -0.0317006 -0.0242728 1.52371 
-0.0316091 -0.0243687 1.52356 -0.0315946 -0.0241324 1.52381 -0.0320146 -0.0247102 1.52367 
-0.0318424 -0.0246346 1.52359 -0.0319624 -0.0245187 1.52369 -0.0318898 -0.0248096 1.5236 
-0.0321439 -0.0245919 1.52378 -0.0322095 -0.0248213 1.52376 -0.0320156 -0.024913 1.52367 
-0.0329508 -0.0255853 1.52415 -0.0327047 -0.0255542 1.52414 -0.0328804 -0.025401 1.52407 
-0.0328066 -0.0257314 1.52425 -0.0331036 -0.0254306 1.52407 -0.0331628 -0.0256253 1.52413 
-0.0330295 -0.025764 1.52423 -0.0331044 -0.0259391 1.52431 -0.0332293 -0.0258142 1.5242 
-0.0332844 -0.0260048 1.52426 -0.0331711 -0.0261206 1.5244 -0.0329803 -0.0260574 1.52445 
-0.0329032 -0.0258922 1.52435 -0.0334654 -0.0260721 1.5242 -0.0335156 -0.0262764 1.52426 
-0.0333426 -0.0262001 1.52434 -0.0334152 -0.0258732 1.52414 -0.0335943 -0.0259386 1.52408 
-0.0336374 -0.0261403 1.52413 -0.0333649 -0.0256786 1.52409 -0.0335504 -0.0257357 1.52403 
-0.0333106 -0.0254782 1.52404 -0.0335024 -0.0255341 1.52399 -0.0334826 -0.0280619 1.52412 
-0.0334992 -0.0280845 1.52393 -0.0333706 -0.0281051 1.52441 -0.0333372 -0.0281762 1.52398 
-0.0333121 -0.0281731 1.52415 -0.0331807 -0.0282554 1.52388 -0.0333498 -0.028192 1.5238 
-0.0331887 -0.0282687 1.52369 -0.0330439 -0.0283097 1.52377 -0.033004 -0.0283123 1.52396 
-0.0331739 -0.0282455 1.52407 -0.0331826 -0.0282323 1.52428 -0.032975 -0.0283154 1.52413 
-0.0338537 -0.0274828 1.52411 -0.0338779 -0.0272729 1.52413 -0.0337349 -0.0276278 1.52426 
-0.0338071 -0.0276812 1.52405 -0.0339329 -0.0275647 1.52394 -0.0339708 -0.0273696 1.52398 
-0.0338772 -0.0270567 1.52413 -0.0338733 -0.0268398 1.52412 -0.0337659 -0.0269515 1.52426 
-0.0339906 -0.0271605 1.524 -0.0336496 -0.0268544 1.52439 -0.0335707 -0.0269616 1.52455 
-0.0337446 -0.0267474 1.52423 -0.0335343 -0.0276824 1.52468 -0.0305778 -0.0266184 1.52416 
-0.0306727 -0.0264658 1.52404 -0.0304941 -0.0267599 1.52431 -0.0304755 -0.0267845 1.52406 
-0.0305548 -0.0266193 1.52391 -0.0306066 -0.0266128 1.5244 -0.0307756 -0.0263248 1.52392 
-0.0306442 -0.0264466 1.52381 -0.0308883 -0.0261821 1.52382 -0.0309201 -0.0262316 1.52402 
-0.0307399 -0.0262863 1.52371 -0.0326864 -0.025868 1.52438 -0.0325829 -0.0257282 1.52427 
-0.0327858 -0.0260138 1.52448 -0.0325716 -0.0259921 1.52451 -0.0324667 -0.0258576 1.52439 
-0.0328816 -0.026162 1.52458 -0.0330678 -0.0262273 1.52455 -0.0329848 -0.0263135 1.52467 
-0.0327738 -0.0262638 1.52472 -0.0326803 -0.026126 1.52462 -0.0332419 -0.0263059 1.52449 
-0.0334123 -0.0264364 1.52443 -0.0322141 -0.0253541 1.52392 -0.0322809 -0.0251824 1.52386 
-0.0324095 -0.0253037 1.52396 -0.0320942 -0.0252389 1.52381 -0.0323368 -0.0254693 1.52403 
-0.032463 -0.0255929 1.52415 -0.032356 -0.0257431 1.52426 -0.0322411 -0.025632 1.52413 
-0.0325333 -0.0254337 1.52405 -0.0314882 -0.0256127 1.52369 -0.0315718 -0.0257068 1.52384 
-0.0315688 -0.0254346 1.52362 -0.0316615 -0.0255451 1.52375 -0.0310753 -0.0261516 1.5241 
-0.0311206 -0.0261874 1.5243 -0.031241 -0.026082 1.52418 -0.0322253 -0.0258699 1.52439 
-0.0323235 -0.0259926 1.52453 -0.0320809 -0.0259905 1.52452 -0.0320066 -0.0258951 1.52437 
-0.0321333 -0.025769 1.52424 -0.0319119 -0.0261124 1.5247 -0.0316808 -0.0261094 1.52465 
-0.0318601 -0.0260217 1.52452 -0.0321549 -0.0261024 1.52468 -0.0318733 -0.0262011 1.5249 
-0.0317079 -0.0261784 1.52485 -0.0324227 -0.0261099 1.52465 -0.0325446 -0.0262215 1.52475 
-0.0315208 -0.0261268 1.5246 -0.031473 -0.0260752 1.52442 -0.0316618 -0.0260427 1.52447 
-0.0313801 -0.0262032 1.52475 -0.0313328 -0.0261626 1.52454 -0.0315489 -0.0261791 1.5248 
-0.0319192 -0.0258111 1.52421 -0.0318417 -0.0257218 1.52405 -0.0317956 -0.0259393 1.52434 
-0.0316049 -0.0259745 1.52429 -0.0317311 -0.0258552 1.52416 -0.0334668 -0.0268413 1.52465 
-0.0333287 -0.0268209 1.5248 -0.0331759 -0.0266584 1.52483 -0.0328761 -0.026614 1.52502 
-0.0327317 -0.0265224 1.52502 -0.0328424 -0.0264918 1.52492 -0.0329859 -0.0265475 1.52489 
-0.0330057 -0.0267137 1.52501 -0.0327024 -0.0263812 1.52488 -0.0325435 -0.0264205 1.52501 
-0.0324918 -0.0263154 1.52489 -0.032888 -0.0264054 1.52481 -0.0305421 -0.0266288 1.52365 
-0.0306217 -0.0264138 1.52358 -0.0305605 -0.0265286 1.52341 -0.0304804 -0.0267994 1.52381 
-0.0310696 -0.0230387 1.52268 -0.0311622 -0.0229367 1.52253 -0.03121 -0.0227341 1.52259 
-0.0308883 -0.0228706 1.52297 -0.0310393 -0.0232427 1.52268 -0.0310198 -0.0234557 1.52267 
-0.0310697 -0.0233506 1.52244 -0.0309732 -0.0233267 1.52285 -0.0311118 -0.023137 1.5225 
-0.0309828 -0.0231447 1.52283 -0.0309096 -0.0230362 1.52294 -0.0307867 -0.0230245 1.5231 
-0.0308818 -0.0231978 1.523 -0.031007 -0.0237642 1.52292 -0.0309799 -0.0235318 1.52289 
-0.0309868 -0.0237728 1.52246 -0.0310158 -0.023586 1.52247 -0.0312014 -0.0240006 1.52347 
-0.0310794 -0.0238929 1.52334 -0.0310369 -0.0238192 1.5236 -0.0311772 -0.0240656 1.52326 
-0.0310878 -0.0233393 1.5222 -0.031027 -0.0235275 1.52226 -0.0311543 -0.0231575 1.52214 
-0.0311286 -0.0231998 1.52231 -0.03109 -0.0233076 1.52198 -0.0310274 -0.0234871 1.52204 
-0.0324796 -0.0217888 1.52317 -0.0326922 -0.0218203 1.52321 -0.0325376 -0.0217356 1.52336 
-0.0323353 -0.0216965 1.5233 -0.0322695 -0.0217651 1.52313 -0.0324076 -0.0218479 1.52298 
-0.0326314 -0.0218633 1.52299 -0.0319735 -0.0251114 1.52369 -0.0321573 -0.0250469 1.52376 
-0.0317996 -0.0251742 1.52363 -0.0318474 -0.0249803 1.5236 -0.0319176 -0.0252993 1.52374 
-0.0327452 -0.0249449 1.52393 -0.0328937 -0.0248922 1.52395 -0.0328574 -0.0250553 1.52396 
-0.0325399 -0.0249114 1.52389 -0.0327303 -0.0247632 1.52394 -0.0326646 -0.0250939 1.52394 
-0.030066 -0.0275511 1.51984 -0.0299698 -0.027402 1.51994 -0.03017 -0.0276906 1.51974 
-0.0301093 -0.0275098 1.52005 -0.0300386 -0.0275902 1.51962 -0.0297944 -0.0273734 1.51915 
-0.0296856 -0.0272316 1.51904 -0.0296696 -0.0272416 1.51926 -0.0299275 -0.0275234 1.51927 
-0.0299177 -0.0274857 1.51902 -0.0295887 -0.0270892 1.51893 -0.0295032 -0.0269414 1.51882 
-0.0295638 -0.0271066 1.51915 -0.0295619 -0.0270848 1.51937 -0.0295874 -0.0270492 1.51958 
-0.0294806 -0.0269222 1.51946 -0.0291337 -0.0260664 1.51938 -0.0290721 -0.0259216 1.51921 
-0.0291352 -0.0258448 1.5194 -0.0292151 -0.0262186 1.51952 -0.0291549 -0.0262886 1.51932 
-0.0292186 -0.0259874 1.51957 -0.0290903 -0.0261305 1.51917 -0.0293176 -0.0263655 1.51966 
-0.0294273 -0.02651 1.5198 -0.0293562 -0.0265703 1.5196 -0.0293976 -0.0262924 1.51984 
-0.0293021 -0.0261432 1.51971 -0.0292464 -0.0264325 1.51947 -0.0296737 -0.0265255 1.52028 
-0.0297257 -0.0264624 1.52046 -0.0297698 -0.026663 1.52042 -0.0296261 -0.026301 1.52031 
-0.029714 -0.0267149 1.52023 -0.0296065 -0.0265816 1.5201 -0.0295601 -0.0263473 1.52013 
-0.0294142 -0.0267561 1.51954 -0.0295212 -0.02688 1.51966 -0.0292999 -0.0266234 1.51941 
-0.0294688 -0.0267022 1.51973 -0.0295853 -0.0268299 1.51986 -0.0294186 -0.0267699 1.51871 
-0.0293546 -0.0266086 1.51862 -0.0293036 -0.0266668 1.51884 -0.0294271 -0.0263009 1.51823 
-0.0293544 -0.0263736 1.51839 -0.0294568 -0.0264539 1.51829 -0.0295599 -0.026442 1.51813 
-0.0295268 -0.0262297 1.51804 -0.0293029 -0.0261753 1.51835 -0.0298964 -0.0270341 1.51826 
-0.0300173 -0.0268796 1.51792 -0.0301678 -0.0269764 1.51782 -0.0305763 -0.0264149 1.52322 
-0.0305417 -0.0268036 1.52306 -0.0305465 -0.0265749 1.52301 -0.0305412 -0.026482 1.52278 
-0.0305163 -0.02637 1.52258 -0.0305498 -0.0262887 1.52275 -0.0305248 -0.0265622 1.52258 
-0.0305545 -0.0267405 1.52277 -0.0305655 -0.0263647 1.52298 -0.0306093 -0.0257045 1.52266 
-0.030588 -0.0259044 1.5227 -0.0305426 -0.0256369 1.52248 -0.0306297 -0.025499 1.52262 
-0.0307021 -0.025579 1.5228 -0.0305323 -0.0258501 1.52252 -0.0305663 -0.0260973 1.52272 
-0.0305262 -0.0262103 1.5226 -0.0305179 -0.026054 1.52253 -0.0305967 -0.0261508 1.52291 
-0.0303201 -0.0263006 1.52205 -0.0304308 -0.026445 1.52224 -0.0302108 -0.0261776 1.52189 
-0.0304037 -0.0261684 1.52222 -0.0302365 -0.0263968 1.52187 -0.029856 -0.0263225 1.52105 
-0.0299585 -0.0264677 1.52117 -0.0299075 -0.0265153 1.52099 -0.0298055 -0.0261238 1.5211 
-0.0299062 -0.0262666 1.52123 -0.0298079 -0.0263776 1.52085 -0.0297551 -0.0261801 1.5209 
-0.0301146 -0.0260565 1.52175 -0.0301305 -0.0262705 1.52172 -0.0300315 -0.0261402 1.52158 
-0.0300302 -0.0259214 1.52161 -0.0301189 -0.0258479 1.52176 -0.0305806 -0.0270356 1.52223 
-0.0305402 -0.0270866 1.52204 -0.0306545 -0.0271795 1.52238 -0.030641 -0.0272197 1.52217 
-0.0305958 -0.0269853 1.52243 -0.0305297 -0.0268324 1.5223 -0.0305976 -0.0269641 1.52266 
-0.0306444 -0.0271307 1.52255 -0.0305791 -0.0269764 1.52291 -0.0306447 -0.0271654 1.52273 
-0.0305533 -0.0267834 1.52252 -0.0300625 -0.0266002 1.52131 -0.0300077 -0.0264106 1.52135 
-0.0301118 -0.0265418 1.52149 -0.0301676 -0.0267355 1.52144 -0.0300133 -0.0266536 1.52112 
-0.030118 -0.0267845 1.52125 -0.0302732 -0.0268697 1.52157 -0.0303796 -0.0270012 1.52171 
-0.030333 -0.0270525 1.52151 -0.0302245 -0.0269193 1.52138 -0.0302181 -0.0266777 1.52163 
-0.0323771 -0.028472 1.52372 -0.0321839 -0.0285114 1.52387 -0.0324129 -0.0284752 1.52397 
-0.0325923 -0.0284321 1.52359 -0.032611 -0.0284211 1.52386 -0.0301266 -0.025654 1.52175 
-0.0300501 -0.025756 1.52165 -0.0300422 -0.0255885 1.52161 -0.0302253 -0.0255373 1.52188 
-0.030143 -0.025458 1.52172 -0.0296687 -0.0260247 1.52076 -0.0297154 -0.0262228 1.52071 
-0.0296339 -0.0260708 1.52056 -0.0296413 -0.0258023 1.52082 -0.0297078 -0.0259641 1.52095 
-0.029606 -0.0258688 1.52063 -0.0308257 -0.0239832 1.522 -0.0308854 -0.0238091 1.52195 
-0.0309063 -0.0238522 1.52214 -0.0307976 -0.0239424 1.52181 -0.03077 -0.0241665 1.52205 
-0.0308581 -0.0240321 1.52219 -0.0303304 -0.0254082 1.522 -0.0304356 -0.025271 1.52213 
-0.0304079 -0.0254875 1.52216 -0.0302548 -0.0253311 1.52184 -0.0303679 -0.0252029 1.52197 
-0.0305392 -0.0251491 1.52226 -0.0304779 -0.025075 1.52209 -0.0306035 -0.0252102 1.52243 
-0.0305045 -0.0253437 1.52229 -0.0306389 -0.0250087 1.52239 -0.030583 -0.0249433 1.52222 
-0.0305237 -0.024632 1.52182 -0.0304701 -0.0248147 1.52187 -0.0304001 -0.0247565 1.5217 
-0.0305772 -0.0246909 1.52201 -0.0306254 -0.0244984 1.52196 -0.0304707 -0.0245652 1.52165 
-0.0309727 -0.0242523 1.5227 -0.0309411 -0.0241684 1.52256 -0.031039 -0.0242427 1.52286 
-0.0309716 -0.0244003 1.52275 -0.0306268 -0.0247478 1.52218 -0.030673 -0.0245562 1.52214 
-0.0306791 -0.0248117 1.52235 -0.0305303 -0.0248761 1.52205 -0.0315382 -0.028471 1.52079 
-0.0314092 -0.0283637 1.52092 -0.0315663 -0.0284498 1.52101 -0.0315104 -0.0285026 1.52058 
-0.0313942 -0.028396 1.5207 -0.0316653 -0.0285809 1.52066 -0.0316915 -0.0285511 1.52088 
-0.0312799 -0.0282555 1.52105 -0.031263 -0.0282804 1.52082 -0.0311344 -0.0281605 1.52095 
-0.0314278 -0.0283446 1.52114 -0.0311584 -0.0281409 1.52117 -0.0308137 -0.0277584 1.52151 
-0.0309242 -0.0278943 1.5214 -0.0307866 -0.0277986 1.52129 -0.0306779 -0.02766 1.5214 
-0.0308397 -0.0277271 1.52172 -0.0307154 -0.0276201 1.52161 -0.03104 -0.028022 1.52129 
-0.0309004 -0.0279242 1.52118 -0.031018 -0.0280448 1.52107 -0.0305886 -0.0279982 1.51982 
-0.0304379 -0.0279111 1.51973 -0.0307341 -0.0280845 1.51991 -0.0305582 -0.0280257 1.5196 
-0.030612 -0.0279672 1.52003 -0.030284 -0.0278185 1.51963 -0.0301488 -0.0277211 1.51953 
-0.0304051 -0.0279379 1.51951 -0.0302488 -0.0278268 1.51943 -0.0309919 -0.0280714 1.52084 
-0.0309681 -0.0281008 1.52063 -0.0308454 -0.0279756 1.52075 -0.0308752 -0.0279518 1.52096 
-0.031113 -0.0281916 1.52073 -0.0312378 -0.0283101 1.52061 -0.0310859 -0.0282184 1.52052 
-0.0313499 -0.028417 1.52049 -0.0312005 -0.0283314 1.5204 -0.0300849 -0.0270555 1.5208 
-0.0300386 -0.0270999 1.5206 -0.0299788 -0.0269298 1.52068 -0.0301546 -0.0272253 1.52072 
-0.0301307 -0.0270113 1.52099 -0.0301935 -0.0271816 1.52091 -0.0300258 -0.0268815 1.52087 
-0.029871 -0.0267975 1.52055 -0.029821 -0.0268478 1.52036 -0.0299294 -0.0269767 1.52048 
-0.0298182 -0.0266109 1.5206 -0.0299186 -0.0267483 1.52074 -0.0305477 -0.0275547 1.52128 
-0.0306448 -0.0276956 1.52119 -0.0305128 -0.0275861 1.52107 -0.0305852 -0.0275113 1.52148 
-0.0304274 -0.0274355 1.52116 -0.0304623 -0.0273927 1.52136 -0.0303062 -0.0273108 1.52103 
-0.0303919 -0.0274712 1.52096 -0.03027 -0.0273489 1.52084 -0.0303439 -0.0272669 1.52122 
-0.0302362 -0.0271408 1.52111 -0.03076 -0.027831 1.52107 -0.0306127 -0.0277227 1.52097 
-0.0307297 -0.0278542 1.52086 -0.0313441 -0.0282269 1.5225 -0.0314763 -0.0283365 1.52266 
-0.0315021 -0.0283165 1.52242 -0.0305994 -0.0274452 1.52324 -0.0305335 -0.0273079 1.52336 
-0.0305576 -0.0274903 1.52343 -0.0306537 -0.0276411 1.52331 -0.030645 -0.0273922 1.52303 
-0.0330011 -0.0294089 1.52027 -0.0328259 -0.0293436 1.52021 -0.0331468 -0.0295105 1.52013 
-0.0330518 -0.0293573 1.52048 -0.0325329 -0.028922 1.52122 -0.032495 -0.028958 1.52102 
-0.0325782 -0.0288725 1.52142 -0.0327176 -0.0289745 1.52127 -0.0326697 -0.0290167 1.52109 
-0.0324684 -0.0290005 1.52081 -0.0324164 -0.0290238 1.52062 -0.0322726 -0.0289144 1.52075 
-0.0326378 -0.0290577 1.52089 -0.031808 -0.0286998 1.52053 -0.0316389 -0.0286167 1.52045 
-0.0319673 -0.0287747 1.52062 -0.0319365 -0.0288071 1.5204 -0.0317719 -0.0287266 1.52032 
-0.0318222 -0.0286608 1.52074 -0.0344105 -0.0298803 1.51938 -0.0343657 -0.029919 1.51916 
-0.0342101 -0.0298584 1.51934 -0.0342309 -0.0298195 1.51954 -0.0344704 -0.0298512 1.51956 
-0.0346538 -0.0299133 1.51939 -0.0346081 -0.0299503 1.51919 -0.0353248 -0.0299637 1.5194 
-0.0355577 -0.029938 1.51946 -0.035461 -0.0300129 1.51923 -0.0353543 -0.0298904 1.51961 
-0.0352101 -0.0299999 1.51926 -0.0351205 -0.0299381 1.51947 -0.0348745 -0.0299297 1.51944 
-0.0347053 -0.0298719 1.51962 -0.0349275 -0.0298839 1.51964 -0.0348364 -0.0299752 1.51922 
-0.0350294 -0.0299766 1.5193 -0.0303162 -0.0277967 1.5187 -0.030369 -0.0277439 1.5185 
-0.0302237 -0.0276475 1.5186 -0.0301762 -0.027695 1.5188 -0.0302769 -0.0278244 1.5189 
-0.0305284 -0.0280471 1.51937 -0.0303588 -0.0279318 1.51927 -0.030047 -0.0275962 1.5189 
-0.0300316 -0.0276215 1.5191 -0.030146 -0.0277199 1.519 -0.0300841 -0.0275531 1.5187 
-0.0301383 -0.0274983 1.51851 -0.0300616 -0.0273474 1.51842 -0.0302836 -0.0275953 1.5184 
-0.0302016 -0.0274438 1.51831 -0.0324387 -0.0294478 1.51889 -0.0325532 -0.029536 1.51876 
-0.0323913 -0.0294463 1.51866 -0.0324809 -0.0294216 1.51912 -0.0322853 -0.0293541 1.51882 
-0.0326067 -0.0295341 1.51897 -0.0320047 -0.0289644 1.51984 -0.031874 -0.0288594 1.51998 
-0.0320335 -0.0289376 1.52005 -0.0321651 -0.0290385 1.51993 -0.0321369 -0.0290677 1.51972 
-0.0317387 -0.028751 1.52011 -0.0315881 -0.0286716 1.52002 -0.0316224 -0.0286525 1.52024 
-0.0318969 -0.0288292 1.52019 -0.0310286 -0.0272871 1.51699 -0.0315667 -0.0265083 1.51587 
-0.031537 -0.0267997 1.51607 -0.03162 -0.026709 1.51592 -0.0305857 -0.02652 1.51699 
-0.0304495 -0.026471 1.5171 -0.0305324 -0.0263591 1.51697 -0.0310523 -0.0265834 1.51654 
-0.0309613 -0.0266689 1.51669 -0.0310102 -0.0263894 1.51649 -0.0311389 -0.0265054 1.5164 
-0.0318088 -0.0250066 1.51537 -0.0316796 -0.0250389 1.51549 -0.0319057 -0.0248739 1.5153 
-0.0313004 -0.0253914 1.51584 -0.0313043 -0.0251777 1.51584 -0.0311843 -0.0252923 1.51596 
-0.031423 -0.0252792 1.51572 -0.0314251 -0.0255004 1.51573 -0.0311908 -0.0254993 1.51596 
-0.0313112 -0.0256024 1.51585 -0.0315508 -0.0251681 1.5156 -0.0315474 -0.0253882 1.51561 
-0.0316693 -0.0252773 1.51549 -0.0314411 -0.0250522 1.51572 -0.0315752 -0.0249326 1.51561 
-0.0336883 -0.0277544 1.51488 -0.0338267 -0.0276263 1.51476 -0.0336349 -0.0275716 1.51482 
-0.0337474 -0.0279303 1.51493 -0.0338874 -0.0277953 1.51482 -0.0335048 -0.0276912 1.51493 
-0.0335622 -0.0278795 1.51498 -0.0336338 -0.0263676 1.51434 -0.0337976 -0.0261974 1.51426 
-0.0335895 -0.0261577 1.5143 -0.0338394 -0.0264144 1.51429 -0.0336788 -0.0265724 1.51439 
-0.0334927 -0.0265203 1.51444 -0.0334469 -0.0263164 1.51438 -0.0334563 -0.0270264 1.51467 
-0.0333329 -0.0271509 1.51477 -0.0335067 -0.0272135 1.51471 -0.0335896 -0.0268909 1.51456 
-0.0334007 -0.0268408 1.51462 -0.0332767 -0.0269694 1.51472 -0.0336401 -0.0270803 1.51461 
-0.0337385 -0.0267466 1.51444 -0.0338866 -0.0266171 1.51433 -0.0335383 -0.0266995 1.5145 
-0.0337856 -0.0269414 1.51451 -0.033261 -0.0262564 1.51444 -0.0334034 -0.0261105 1.51434 
-0.0331208 -0.0264006 1.51456 -0.0333053 -0.0264616 1.51449 -0.033078 -0.0261875 1.51452 
-0.032902 -0.0261123 1.51459 -0.0328709 -0.0258953 1.51457 -0.032733 -0.0260316 1.51467 
-0.0329471 -0.0263252 1.51462 -0.0329923 -0.026528 1.51466 -0.0331682 -0.0265969 1.51461 
-0.0330465 -0.0267214 1.51472 -0.032872 -0.0266546 1.51478 -0.0320358 -0.0289196 1.51755 
-0.0320771 -0.0288725 1.51736 -0.0319328 -0.0287737 1.51745 -0.0321842 -0.0290162 1.51746 
-0.0321425 -0.0290547 1.51766 -0.0322519 -0.0291858 1.51777 -0.0323628 -0.0293071 1.51787 
-0.0322917 -0.0291508 1.51758 -0.0324002 -0.0292739 1.51769 -0.0327617 -0.0267683 1.5149 
-0.0329226 -0.0268422 1.51484 -0.0326054 -0.0266777 1.51498 -0.0332145 -0.0272693 1.51489 
-0.0331562 -0.0270868 1.51484 -0.0330423 -0.0272022 1.51496 -0.0330973 -0.0273867 1.515 
-0.0332678 -0.0274473 1.51494 -0.0333867 -0.0273337 1.51482 -0.031496 -0.0275204 1.51655 
-0.0315853 -0.0274392 1.51638 -0.0314322 -0.0273379 1.51652 -0.0315755 -0.0277063 1.5166 
-0.0316456 -0.0276271 1.51644 -0.0318563 -0.0267097 1.51567 -0.0316719 -0.0269013 1.51597 
-0.0317083 -0.0266085 1.51577 -0.0315855 -0.0269851 1.51612 -0.0314945 -0.0270651 1.51628 
-0.0316294 -0.0271701 1.51617 -0.0317207 -0.0270878 1.51602 -0.0331486 -0.0275716 1.51504 
-0.0329336 -0.0277885 1.5153 -0.0334387 -0.0279987 1.51509 -0.0335026 -0.0281734 1.51515 
-0.0336239 -0.028055 1.51504 -0.0332647 -0.0279358 1.51514 -0.0333825 -0.0278165 1.51504 
-0.0329182 -0.0280635 1.51553 -0.0329962 -0.0282185 1.51559 -0.0328444 -0.0278895 1.51546 
-0.0329998 -0.0279648 1.51537 -0.0333002 -0.0283712 1.51543 -0.0331401 -0.0282964 1.51551 
-0.0330259 -0.0283819 1.51571 -0.0332155 -0.0284662 1.5156 -0.0319747 -0.0275477 1.51602 
-0.0319104 -0.0273684 1.51597 -0.0318216 -0.0274596 1.51612 -0.0318906 -0.0276401 1.51617 
-0.0320391 -0.0277058 1.51607 -0.0320611 -0.0274579 1.51588 -0.0321224 -0.0276306 1.51594 
-0.031814 -0.0277266 1.51632 -0.0319075 -0.0279224 1.51639 -0.0319664 -0.0278114 1.51622 
-0.0317398 -0.0278103 1.51649 -0.0317356 -0.0275475 1.51627 -0.0322766 -0.0277144 1.51586 
-0.0322148 -0.0275465 1.51579 -0.0321869 -0.0277941 1.51599 -0.0321014 -0.0279964 1.51623 
-0.0320163 -0.0281021 1.51643 -0.032309 -0.0281471 1.51616 -0.0319584 -0.0266052 1.51552 
-0.0319999 -0.0268093 1.51557 -0.0318077 -0.0265057 1.51562 -0.0320446 -0.0269988 1.51562 
-0.0321918 -0.0270891 1.51552 -0.0320966 -0.0271874 1.51567 -0.0324539 -0.0265909 1.51507 
-0.0324074 -0.0263857 1.51503 -0.0316723 -0.0254913 1.5155 -0.0319404 -0.0254848 1.51527 
-0.0318068 -0.0255761 1.51539 -0.0321708 -0.0249554 1.51508 -0.0320133 -0.0249553 1.51521 
-0.032079 -0.0253772 1.51513 -0.0322313 -0.0252022 1.51501 -0.0320814 -0.0256531 1.51515 
-0.0322259 -0.0254943 1.515 -0.0319263 -0.0256792 1.5153 -0.0319914 -0.0258718 1.51527 
-0.0322487 -0.0257469 1.51501 -0.0321497 -0.0259009 1.51513 -0.0323863 -0.0253751 1.51487 
-0.0324207 -0.0251367 1.51486 -0.0323871 -0.0256094 1.51486 -0.0315523 -0.0255919 1.51562 
-0.031564 -0.0257921 1.51563 -0.0316833 -0.0256874 1.51552 -0.031434 -0.0257024 1.51574 
-0.0313191 -0.0258077 1.51587 -0.031198 -0.0257028 1.51598 -0.0312196 -0.0259134 1.51601 
-0.0313383 -0.0260106 1.5159 -0.031447 -0.0259 1.51576 -0.0349177 -0.0275178 1.51458 
-0.0347412 -0.0274041 1.51454 -0.0346455 -0.0275874 1.51461 -0.0348627 -0.0277341 1.51466 
-0.0345838 -0.0268693 1.51434 -0.0345075 -0.0266698 1.51428 -0.0347716 -0.0266972 1.51429 
-0.0344422 -0.0270247 1.5144 -0.0347169 -0.0270877 1.51442 -0.0339671 -0.0274761 1.51466 
-0.0339072 -0.0273018 1.5146 -0.0337691 -0.0274407 1.5147 -0.0340307 -0.027661 1.51472 
-0.0341926 -0.0274946 1.51462 -0.034113 -0.0273369 1.51457 -0.0344129 -0.0275206 1.51461 
-0.0342339 -0.0277004 1.5147 -0.0344723 -0.0277167 1.51468 -0.0345418 -0.0273932 1.51454 
-0.0343492 -0.0273694 1.51455 -0.0364264 -0.0291856 1.51612 -0.0366724 -0.0291775 1.51632 
-0.0365659 -0.0291312 1.51618 -0.0364735 -0.029658 1.51681 -0.0364154 -0.0295708 1.51663 
-0.0362721 -0.0297086 1.51675 -0.0365342 -0.0297455 1.51699 -0.0366654 -0.0296093 1.51688 
-0.03661 -0.0295296 1.51672 -0.035551 -0.0296887 1.52011 -0.0353945 -0.0297618 1.51995 
-0.0356172 -0.0297506 1.51993 -0.0354824 -0.0296242 1.52029 -0.0356815 -0.0296057 1.52024 
-0.0350939 -0.0292523 1.5211 -0.0351784 -0.0293451 1.52095 -0.0349688 -0.0293647 1.52097 
-0.0350054 -0.0291473 1.52125 -0.0352115 -0.0291354 1.52122 -0.0352967 -0.0292341 1.52107 
-0.0348792 -0.0292577 1.52113 -0.0348382 -0.0294649 1.52085 -0.0347052 -0.0293541 1.52103 
-0.0349417 -0.0295426 1.52069 -0.0350618 -0.0294499 1.52082 -0.0350385 -0.0295932 1.52056 
-0.0352179 -0.0295823 1.52051 -0.0351347 -0.0295182 1.52068 -0.0354996 -0.0292029 1.52103 
-0.0354156 -0.0291119 1.52119 -0.0356151 -0.0290719 1.52115 -0.0356966 -0.0291586 1.52099 
-0.0355814 -0.0292818 1.52087 -0.0358159 -0.0294976 1.52037 -0.0356152 -0.0295289 1.52041 
-0.0357399 -0.0294216 1.52053 -0.0359423 -0.0293839 1.5205 -0.0360345 -0.0294597 1.52035 
-0.0376855 -0.028945 1.51933 -0.0377712 -0.0287905 1.51942 -0.0376447 -0.0289066 1.51954 
-0.0377122 -0.0289799 1.51912 -0.0375845 -0.0290896 1.51923 -0.0371887 -0.0294173 1.51933 
-0.0373327 -0.0293225 1.51923 -0.0371632 -0.029389 1.51954 -0.0372026 -0.0294319 1.51911 
-0.0370361 -0.0295046 1.51941 -0.0371865 -0.0289289 1.5203 -0.0372765 -0.0287783 1.52038 
-0.0371173 -0.0288642 1.52047 -0.0368928 -0.0293663 1.52 -0.0368172 -0.0292912 1.52018 
-0.0370708 -0.0292882 1.51993 -0.035796 -0.0299328 1.51943 -0.0359932 -0.0299123 1.51939 
-0.0358318 -0.0299893 1.51924 -0.0357453 -0.029871 1.5196 -0.035662 -0.0299895 1.5193 
-0.0359534 -0.0298548 1.51957 -0.0361982 -0.0298777 1.51933 -0.0363977 -0.0298327 1.51927 
-0.0362307 -0.0299152 1.51913 -0.0363682 -0.0297928 1.51947 -0.0360366 -0.0299588 1.51919 
-0.0361564 -0.0298283 1.51952 -0.0360664 -0.0292724 1.52062 -0.0361537 -0.0293492 1.52047 
-0.0358636 -0.029309 1.52065 -0.0362852 -0.0290035 1.52085 -0.0361877 -0.0289169 1.521 
-0.0363775 -0.0288654 1.52095 -0.0364792 -0.0289547 1.52081 -0.0362427 -0.0294335 1.52032 
-0.0364408 -0.0293996 1.52029 -0.0363187 -0.0295157 1.52016 -0.0366755 -0.0289087 1.52076 
-0.0365766 -0.0288152 1.52091 -0.0367661 -0.0287635 1.52086 -0.0377378 -0.0290048 1.51844 
-0.0376213 -0.029127 1.51832 -0.0377392 -0.0290061 1.5182 -0.037853 -0.0288808 1.51855 
-0.0377337 -0.0290008 1.51867 -0.0377277 -0.0289936 1.5189 -0.037846 -0.0288748 1.51878 
-0.0376042 -0.0291104 1.51902 -0.0372158 -0.0294397 1.51889 -0.0373496 -0.0293352 1.51901 
-0.0370801 -0.0295405 1.51876 -0.0372282 -0.0294502 1.51866 -0.0375011 -0.0292461 1.5182 
-0.0376208 -0.0291269 1.51808 -0.0373773 -0.0293611 1.51808 -0.0373724 -0.0293569 1.51832 
-0.0374737 -0.0292201 1.51913 -0.0369455 -0.0296446 1.51863 -0.0370932 -0.0295542 1.51853 
-0.036815 -0.0297469 1.51849 -0.0367944 -0.0297316 1.51871 -0.036736 -0.0298307 1.51797 
-0.0366938 -0.0298501 1.51814 -0.0366836 -0.0298549 1.51781 -0.0365506 -0.0299127 1.51798 
-0.0368489 -0.0297692 1.51787 -0.0372373 -0.0294595 1.51843 -0.0372458 -0.0294678 1.5182 
-0.0372506 -0.029474 1.51797 -0.0372507 -0.0294765 1.51774 -0.0371209 -0.0295823 1.51786 
-0.0369823 -0.0296845 1.51776 -0.0368322 -0.0297751 1.51766 -0.037112 -0.0295855 1.51763 
-0.0362467 -0.0299492 1.51891 -0.0364521 -0.0298882 1.51884 -0.0362827 -0.0299686 1.5187 
-0.0360648 -0.0299945 1.51898 -0.0360816 -0.030024 1.51876 -0.0364248 -0.0298617 1.51906 
-0.036309 -0.0299822 1.51848 -0.0364779 -0.0299082 1.51863 -0.0365137 -0.0299152 1.51843 
-0.0361088 -0.0300385 1.51854 -0.0361605 -0.0300348 1.51827 -0.0363818 -0.0299702 1.5183 
-0.0353556 -0.0260526 1.52322 -0.0355456 -0.0262283 1.52305 -0.035352 -0.0263194 1.5232 
-0.0352108 -0.0261915 1.52331 -0.0352125 -0.0259893 1.5233 -0.0355091 -0.0259055 1.52311 
-0.0353247 -0.0258812 1.52324 -0.0355786 -0.0263964 1.52297 -0.0356976 -0.0262717 1.52288 
-0.0356725 -0.0264681 1.52283 -0.0355399 -0.0265692 1.52294 -0.0354556 -0.0264356 1.52308 
-0.0353136 -0.026532 1.52319 -0.0351975 -0.0264159 1.52329 -0.0354165 -0.0266451 1.52305 
-0.0352851 -0.0267363 1.52316 -0.0351722 -0.0266214 1.52328 -0.0350504 -0.0262868 1.52338 
-0.0350381 -0.0265003 1.52338 -0.035062 -0.0260702 1.52338 -0.0348915 -0.026383 1.52346 
-0.0349004 -0.0261593 1.52346 -0.0350939 -0.0258939 1.52336 -0.0350328 -0.0257235 1.52338 
-0.0352083 -0.0257882 1.5233 -0.0349208 -0.0259076 1.52344 -0.0357179 -0.0289268 1.52125 
-0.0355233 -0.0289683 1.5213 -0.0358113 -0.0287685 1.52135 -0.03591 -0.0288783 1.52121 
-0.0358087 -0.0290262 1.5211 -0.0361937 -0.0286685 1.52125 -0.0364765 -0.0287163 1.52106 
-0.0366682 -0.028664 1.52101 -0.0362873 -0.028769 1.52111 -0.0343222 -0.0279656 1.52314 
-0.0344091 -0.0280419 1.52297 -0.0342036 -0.0280936 1.52302 -0.0341284 -0.0280222 1.52319 
-0.0342391 -0.0278903 1.52331 -0.0340978 -0.0272624 1.52387 -0.0342347 -0.027165 1.52377 
-0.0342028 -0.0273644 1.52373 -0.0340644 -0.0274614 1.52383 -0.0341567 -0.0278119 1.52346 
-0.0340563 -0.0279512 1.52336 -0.0339883 -0.0278811 1.52352 -0.0342412 -0.0276507 1.52354 
-0.0340818 -0.0277291 1.52361 -0.0344273 -0.0266227 1.5237 -0.0344676 -0.0263629 1.52368 
-0.0345913 -0.0265496 1.52361 -0.0342795 -0.0264915 1.52379 -0.0344003 -0.0268472 1.52369 
-0.0345661 -0.0267528 1.5236 -0.0355028 -0.0267563 1.5229 -0.0354653 -0.0269397 1.52285 
-0.0353809 -0.0268435 1.52301 -0.0340777 -0.0282087 1.5229 -0.0342784 -0.0281697 1.52285 
-0.0341449 -0.028284 1.52272 -0.0338794 -0.0282432 1.52293 -0.0340073 -0.0281391 1.52307 
-0.0339455 -0.0283123 1.52276 -0.0338521 -0.0289205 1.52174 -0.0340878 -0.0289137 1.52171 
-0.0337609 -0.0288338 1.52189 -0.0339479 -0.0290132 1.52158 -0.0337081 -0.0290058 1.52159 
-0.0336232 -0.0289115 1.52175 -0.0353203 -0.0290033 1.52133 -0.0351187 -0.0290259 1.52136 
-0.0339402 -0.0280724 1.52324 -0.033813 -0.0281808 1.52311 -0.0337537 -0.028128 1.52329 
-0.0338788 -0.0280129 1.52341 -0.033187 -0.0282935 1.52347 -0.0333879 -0.0282413 1.52341 
-0.0332042 -0.0283215 1.52325 -0.0330106 -0.0283317 1.52358 -0.0329828 -0.0283617 1.52332 
-0.03336 -0.0282118 1.52362 -0.0329522 -0.0284936 1.5227 -0.0328268 -0.0285397 1.52251 
-0.0330589 -0.0285413 1.52253 -0.0329035 -0.028454 1.52289 -0.0331084 -0.0284308 1.52286 
-0.0331878 -0.0284768 1.5227 -0.0334477 -0.0288848 1.52179 -0.0335537 -0.0288243 1.52191 
-0.0332795 -0.0288993 1.52174 -0.0334497 -0.02898 1.52161 -0.0336884 -0.0287401 1.52206 
-0.0336176 -0.0286621 1.52222 -0.0338244 -0.0286579 1.52219 -0.0367924 -0.0227635 1.51893 
-0.0369381 -0.0228543 1.51884 -0.0367555 -0.0227806 1.51916 -0.0366404 -0.0226702 1.51904 
-0.0368178 -0.0227507 1.51871 -0.0374569 -0.0231056 1.5182 -0.0374159 -0.0230957 1.51836 
-0.0373024 -0.0230057 1.5182 -0.0374212 -0.0230858 1.518 -0.0375636 -0.0231976 1.51829 
-0.0375637 -0.0231882 1.51809 -0.0376724 -0.0233054 1.51838 -0.0376857 -0.0232924 1.51819 
-0.0378036 -0.0234077 1.51828 -0.0377863 -0.0234307 1.51847 -0.0376469 -0.0233307 1.51857 
-0.0375269 -0.0232049 1.51848 -0.036494 -0.0225755 1.51912 -0.036631 -0.0227013 1.51926 
-0.0363566 -0.0224691 1.51897 -0.0363524 -0.0224815 1.51924 -0.0367313 -0.0228042 1.51938 
-0.037517 -0.0234667 1.51916 -0.0373717 -0.0233689 1.51926 -0.0374189 -0.0233228 1.51907 
-0.0375672 -0.02342 1.51897 -0.037609 -0.023617 1.51926 -0.0376624 -0.0235597 1.51906 
-0.0372311 -0.0232677 1.51938 -0.037267 -0.0232171 1.51918 -0.0356117 -0.0210835 1.52007 
-0.0357377 -0.0211367 1.52021 -0.0356899 -0.0209588 1.52023 -0.0355939 -0.0209155 1.52013 
-0.0354634 -0.0209455 1.51998 -0.0358772 -0.0217701 1.52004 -0.035771 -0.0216909 1.51993 
-0.0360886 -0.0222118 1.51978 -0.0361114 -0.0222763 1.51959 -0.0359779 -0.0221222 1.51968 
-0.0359503 -0.0221519 1.51949 -0.0358395 -0.021234 1.52034 -0.0357654 -0.0213882 1.52013 
-0.0358793 -0.0211843 1.5205 -0.0357984 -0.0209849 1.52043 -0.035926 -0.0213883 1.52046 
-0.0358779 -0.021468 1.52027 -0.0359834 -0.0215531 1.52057 -0.0359504 -0.0213583 1.5207 
-0.0359984 -0.0216003 1.52077 -0.0360299 -0.0217557 1.52058 -0.0359665 -0.0216113 1.5204 
-0.0360682 -0.0229907 1.52157 -0.0361447 -0.0229112 1.5214 -0.0361204 -0.0231747 1.52162 
-0.0359849 -0.0230745 1.52173 -0.0357613 -0.0226123 1.52172 -0.0356169 -0.0225165 1.52182 
-0.0358898 -0.0227091 1.52162 -0.0362186 -0.0228382 1.52124 -0.0362806 -0.0227704 1.52106 
-0.0353365 -0.0218179 1.5218 -0.0353214 -0.0215446 1.52178 -0.0353776 -0.0220373 1.52183 
-0.0354964 -0.0219332 1.52171 -0.0358585 -0.0218369 1.52132 -0.0359326 -0.0217321 1.52116 
-0.0357458 -0.0219271 1.52147 -0.0358288 -0.0216067 1.52129 -0.0358786 -0.0220475 1.52136 
-0.0357829 -0.0213726 1.52129 -0.0356807 -0.0212333 1.5214 -0.0358629 -0.0213269 1.52111 
-0.0358991 -0.0215235 1.52113 -0.0357411 -0.0211282 1.52128 -0.0355913 -0.0211775 1.5215 
-0.0355047 -0.0210318 1.52159 -0.035676 -0.0210309 1.52137 -0.037763 -0.023447 1.51769 
-0.0378623 -0.0235861 1.5176 -0.0377424 -0.0234761 1.51748 -0.0376841 -0.0233039 1.51798 
-0.0378007 -0.0234047 1.51809 -0.0374028 -0.0230877 1.51781 -0.0372457 -0.022987 1.51771 
-0.0373889 -0.0231025 1.51757 -0.0372731 -0.0229894 1.51795 -0.0384406 -0.0248961 1.51767 
-0.0384275 -0.0249215 1.51746 -0.038477 -0.0251051 1.5176 -0.0383988 -0.0247028 1.51774 
-0.0383809 -0.0247314 1.51752 -0.03849 -0.0250678 1.51783 -0.0384545 -0.0248578 1.5179 
-0.0381958 -0.024198 1.5175 -0.0382591 -0.0243865 1.51743 -0.0382778 -0.0243529 1.51765 
-0.0381683 -0.0242365 1.51728 -0.0381276 -0.024027 1.51758 -0.0382155 -0.0241694 1.51772 
-0.0379126 -0.0240026 1.51681 -0.0379899 -0.0241673 1.51674 -0.0380206 -0.0241301 1.51695 
-0.0378355 -0.0238377 1.51689 -0.0378012 -0.0238732 1.51669 -0.0378798 -0.0240281 1.51661 
-0.0377562 -0.0236827 1.51698 -0.0376743 -0.0235343 1.51707 -0.0377188 -0.023717 1.51677 
-0.0378002 -0.0236528 1.51719 -0.0379071 -0.02352 1.51818 -0.0379825 -0.0236278 1.51809 
-0.0380029 -0.0236522 1.51825 -0.0379058 -0.0235369 1.51837 -0.0376938 -0.0237664 1.51935 
-0.0377717 -0.0239217 1.51943 -0.0376369 -0.0238204 1.51954 -0.0384116 -0.0249384 1.51725 
-0.0384483 -0.0251371 1.51719 -0.0384629 -0.0251079 1.51739 -0.0383668 -0.0247591 1.51731 
-0.0383434 -0.0247821 1.5171 -0.0383876 -0.024963 1.51704 -0.0381259 -0.0242617 1.51708 
-0.0380967 -0.0243057 1.51688 -0.0381975 -0.024443 1.51701 -0.0382319 -0.0244131 1.51722 
-0.0381987 -0.0246983 1.51654 -0.0382831 -0.0248511 1.51669 -0.0382287 -0.0246577 1.51674 
-0.038166 -0.0247287 1.51633 -0.038249 -0.0248806 1.51648 -0.0381373 -0.0245061 1.5166 
-0.0381032 -0.024536 1.51639 -0.0379789 -0.0244361 1.51964 -0.0379079 -0.0244923 1.51982 
-0.0378601 -0.0243184 1.51976 -0.0380277 -0.0246198 1.51969 -0.0380355 -0.0243798 1.51945 
-0.0380879 -0.0245647 1.51951 -0.0379196 -0.0242553 1.51958 -0.0381868 -0.0247026 1.51938 
-0.0382345 -0.0248948 1.51942 -0.038135 -0.024511 1.51933 -0.0382351 -0.0246523 1.51918 
-0.0381372 -0.0247592 1.51956 -0.0377359 -0.0241985 1.51988 -0.0376108 -0.0240789 1.51998 
-0.0376585 -0.0240249 1.51981 -0.0377929 -0.02414 1.51969 -0.0377921 -0.0243757 1.51994 
-0.0376733 -0.0242583 1.52006 -0.0374923 -0.0239621 1.5201 -0.0375573 -0.02414 1.52017 
-0.0374425 -0.0240207 1.52029 -0.0374235 -0.0237968 1.52002 -0.037536 -0.0239137 1.51991 
-0.0354174 -0.0226957 1.52212 -0.0352209 -0.0228602 1.52241 -0.0353656 -0.0225178 1.52206 
-0.035477 -0.0228749 1.52218 -0.0353802 -0.022957 1.52232 -0.0372377 -0.0251816 1.52129 
-0.0371351 -0.0252909 1.52143 -0.0373252 -0.0250864 1.52115 -0.0371054 -0.0250753 1.5214 
-0.0369669 -0.0249741 1.52151 -0.0368275 -0.024859 1.52161 -0.0369261 -0.024773 1.52147 
-0.0370618 -0.0248655 1.52137 -0.0370018 -0.025185 1.52153 -0.0368655 -0.0250684 1.52164 
-0.0366889 -0.0247513 1.52172 -0.0367282 -0.0249527 1.52175 -0.0365536 -0.0246323 1.52183 
-0.0366488 -0.0245515 1.52168 -0.036787 -0.0246586 1.52157 -0.0367648 -0.0261182 1.52177 
-0.036788 -0.0258848 1.52178 -0.0366486 -0.0259964 1.5219 -0.0367447 -0.0263449 1.52176 
-0.0366283 -0.0262236 1.52188 -0.0365358 -0.025877 1.52203 -0.0365477 -0.0256419 1.52204 
-0.0366656 -0.0257648 1.52191 -0.0365146 -0.0261055 1.522 -0.0363995 -0.0259927 1.52213 
-0.0364208 -0.0257637 1.52216 -0.0363189 -0.0256589 1.52229 -0.0364286 -0.0255246 1.52218 
-0.0362917 -0.0258842 1.52227 -0.0361974 -0.0257837 1.52241 -0.0361992 -0.0255772 1.52244 
-0.0367979 -0.0241757 1.52133 -0.0368457 -0.0243683 1.52137 -0.0366994 -0.0242691 1.52148 
-0.0367508 -0.0239767 1.52129 -0.0366562 -0.024067 1.52144 -0.0369353 -0.0242815 1.52122 
-0.0345769 -0.022589 1.52288 -0.0344962 -0.0226642 1.52305 -0.0346516 -0.0227473 1.52294 
-0.0342251 -0.0222298 1.52279 -0.0342821 -0.022157 1.52263 -0.0348854 -0.0228292 1.52273 
-0.0349982 -0.0228775 1.52264 -0.034928 -0.0229708 1.52278 -0.0347808 -0.0228482 1.52286 
-0.0360748 -0.0259108 1.52254 -0.036043 -0.0261198 1.5225 -0.0359536 -0.0260283 1.52266 
-0.0359741 -0.0258136 1.52268 -0.0360926 -0.0257029 1.52256 -0.0361677 -0.0259894 1.52239 
-0.0339339 -0.025088 1.52372 -0.034085 -0.0249238 1.52364 -0.0341201 -0.0251561 1.52366 
-0.0338947 -0.0248645 1.52371 -0.0339763 -0.0253072 1.52375 -0.0337927 -0.0252419 1.52381 
-0.0337473 -0.025027 1.52379 -0.0336449 -0.0253926 1.5239 -0.0334544 -0.025328 1.52395 
-0.0336029 -0.025183 1.52387 -0.0336877 -0.0255981 1.52393 -0.0338299 -0.0254543 1.52384 
-0.0353728 -0.0257085 1.52321 -0.0351934 -0.0255894 1.52329 -0.0344235 -0.0261123 1.52369 
-0.0344037 -0.0258786 1.52368 -0.0342751 -0.0262508 1.52378 -0.0345972 -0.026186 1.52361 
-0.0345813 -0.0259549 1.5236 -0.0341214 -0.0263851 1.52388 -0.0339862 -0.0265071 1.52398 
-0.0339654 -0.0262881 1.52396 -0.0364908 -0.0263291 1.52197 -0.0363425 -0.0264295 1.52207 
-0.0363728 -0.0262149 1.5221 -0.0366053 -0.0264459 1.52185 -0.0362631 -0.0261062 1.52223 
-0.0362279 -0.0263227 1.5222 -0.0361298 -0.0262191 1.52234 -0.0372405 -0.0294765 1.51752 
-0.0373653 -0.0293631 1.51741 -0.0374823 -0.029227 1.5173 -0.0376063 -0.0290982 1.5174 
-0.0375867 -0.0290777 1.5172 -0.0382385 -0.0280537 1.51745 -0.038279 -0.0281016 1.51765 
-0.0383438 -0.027917 1.5176 -0.0381702 -0.0282375 1.51751 -0.0383009 -0.0278721 1.51739 
-0.0381938 -0.028009 1.51725 -0.0381298 -0.0281937 1.51731 -0.0381732 -0.0284776 1.518 
-0.0382533 -0.0283148 1.51793 -0.0380479 -0.028592 1.51788 -0.0381371 -0.0284414 1.51779 
-0.0377285 -0.0289954 1.51797 -0.0378254 -0.0288539 1.51786 -0.0377096 -0.0289762 1.51774 
-0.037922 -0.0287087 1.51776 -0.0380162 -0.0285606 1.51767 -0.0378053 -0.0288289 1.51764 
-0.037699 -0.028956 1.51752 -0.0375413 -0.0290257 1.51699 -0.0374766 -0.0289686 1.51679 
-0.0379655 -0.0287547 1.51866 -0.0381397 -0.027964 1.51706 -0.0382504 -0.0278281 1.5172 
-0.0380724 -0.02791 1.51687 -0.0380258 -0.0280961 1.51693 -0.0381961 -0.0277733 1.51702 
-0.0380812 -0.0281467 1.51712 -0.0383993 -0.0258904 1.51962 -0.0383461 -0.0259552 1.5198 
-0.0384696 -0.0260377 1.51946 -0.0383742 -0.0256996 1.51958 -0.038444 -0.0258286 1.51943 
-0.0379661 -0.0282688 1.51964 -0.0379054 -0.0282109 1.51983 -0.038026 -0.0280969 1.51971 
-0.0380289 -0.0283278 1.51945 -0.0379026 -0.028447 1.51957 -0.0378435 -0.0283914 1.51977 
-0.0380909 -0.0281571 1.51952 -0.0382061 -0.0280412 1.5194 -0.0382639 -0.0280959 1.51921 
-0.0381512 -0.028215 1.51934 -0.038145 -0.0279796 1.51958 -0.038263 -0.0278459 1.51945 
-0.0377353 -0.0280267 1.52037 -0.0377947 -0.0280847 1.52019 -0.0376806 -0.0282159 1.52031 
-0.0377703 -0.0278662 1.52044 -0.0376808 -0.0279584 1.52055 -0.0385949 -0.0265642 1.5189 
-0.0385871 -0.0267883 1.51887 -0.0385808 -0.0266887 1.51903 -0.0385758 -0.0264906 1.51908 
-0.038561 -0.026008 1.51903 -0.0385833 -0.0259379 1.51887 -0.0386107 -0.0260394 1.5187 
-0.0385616 -0.0262253 1.51911 -0.0385923 -0.0256649 1.51799 -0.0385838 -0.0254599 1.51812 
-0.0385573 -0.0254913 1.51787 -0.0385729 -0.0257194 1.51781 -0.0386137 -0.0258784 1.51798 
-0.0386236 -0.0257149 1.51822 -0.0386115 -0.0260918 1.51786 -0.0386445 -0.0261227 1.51808 
-0.0386272 -0.0263237 1.51792 -0.0385858 -0.0259048 1.51778 -0.0386496 -0.0263713 1.51814 
-0.0386132 -0.0256446 1.51845 -0.0386013 -0.0256867 1.51864 -0.0385768 -0.0254863 1.51859 
-0.0385903 -0.0254635 1.51834 -0.0386185 -0.0265511 1.51798 -0.0385974 -0.0267688 1.51801 
-0.0386211 -0.0266373 1.51819 -0.0386004 -0.0265104 1.51776 -0.0385872 -0.0267288 1.51782 
-0.0386093 -0.0268379 1.51834 -0.0385988 -0.0270393 1.5184 -0.0385815 -0.0272847 1.51854 
-0.0385939 -0.0270266 1.51822 -0.0385835 -0.0272445 1.51827 -0.0377307 -0.0285174 1.51989 
-0.0376771 -0.0284597 1.52007 -0.03779 -0.0283339 1.51995 -0.0376145 -0.0286362 1.52 
-0.0377844 -0.0285698 1.5197 -0.0376673 -0.0286914 1.51982 -0.0374235 -0.0286817 1.52029 
-0.037557 -0.0285771 1.52018 -0.0375404 -0.0288058 1.51993 -0.0329211 -0.029018 1.52132 
-0.0329783 -0.0289516 1.52151 -0.0331308 -0.0290521 1.52137 -0.0327794 -0.0289182 1.52147 
-0.0328614 -0.0290675 1.52114 -0.0330648 -0.0291121 1.52118 -0.0332117 -0.0292029 1.52104 
-0.0331491 -0.0292514 1.52085 -0.0330026 -0.0291561 1.52099 -0.0332767 -0.0291453 1.52122 
-0.0334205 -0.0292441 1.52107 -0.0372886 -0.0256446 1.51459 -0.0374425 -0.0255779 1.51468 
-0.0373148 -0.0254004 1.5146 -0.0372578 -0.0258635 1.5146 -0.0371568 -0.0255037 1.51451 
-0.03742 -0.0257852 1.51468 -0.0372873 -0.0251613 1.51459 -0.0371517 -0.0252975 1.5145 
-0.0372529 -0.0249269 1.5146 -0.0374314 -0.0252303 1.51468 -0.0374139 -0.025023 1.5147 
-0.0376756 -0.0270359 1.51562 -0.0376264 -0.027224 1.51567 -0.0377593 -0.0271042 1.51578 
-0.0377377 -0.0268514 1.51558 -0.0376202 -0.0268893 1.51543 -0.0377828 -0.0263734 1.51529 
-0.0378441 -0.0264659 1.51546 -0.0376947 -0.0263032 1.51513 -0.0376392 -0.0264837 1.51517 
-0.037731 -0.0265423 1.51533 -0.0372468 -0.0270389 1.5151 -0.0372716 -0.0268754 1.51502 
-0.0373781 -0.026963 1.51517 -0.03715 -0.0271944 1.51511 -0.036631 -0.0288628 1.51595 
-0.0365289 -0.0290294 1.51603 -0.0367156 -0.0286935 1.51585 -0.0377439 -0.0275448 1.51605 
-0.0376661 -0.0274735 1.51589 -0.0376107 -0.0276511 1.51594 -0.0370228 -0.0282832 1.5158 
-0.0369563 -0.0284671 1.51588 -0.0371309 -0.0283842 1.51597 -0.0371937 -0.028196 1.51589 
-0.036917 -0.028182 1.51563 -0.0372705 -0.028469 1.51617 -0.037057 -0.0285818 1.51606 
-0.0373976 -0.0283225 1.51618 -0.0373 -0.0282787 1.51605 -0.0374706 -0.0277611 1.51585 
-0.037409 -0.0279311 1.5159 -0.037552 -0.0278326 1.516 -0.0374065 -0.0276837 1.51572 
-0.0375278 -0.0275813 1.51579 -0.0376862 -0.023746 1.51656 -0.0375713 -0.0236233 1.51644 
-0.0376601 -0.0237729 1.51637 -0.0377745 -0.0239039 1.51648 -0.0379468 -0.0244617 1.51585 
-0.0378378 -0.024337 1.51572 -0.0379055 -0.0245062 1.51566 -0.0380431 -0.0246081 1.51598 
-0.0379841 -0.0244283 1.51605 -0.0378787 -0.0242959 1.51592 -0.0380049 -0.0246395 1.51579 
-0.0381316 -0.0247588 1.51613 -0.0382156 -0.0249104 1.51627 -0.0380758 -0.0245732 1.51619 
-0.0381832 -0.0249515 1.51607 -0.038094 -0.0247905 1.51593 -0.0377081 -0.0247034 1.51511 
-0.0376218 -0.024802 1.51495 -0.037661 -0.0245171 1.51516 -0.0377744 -0.0246208 1.51526 
-0.0377572 -0.0249153 1.51507 -0.0365278 -0.0225538 1.51815 -0.0366757 -0.0226387 1.51803 
-0.0366799 -0.0226431 1.51827 -0.0363732 -0.0224656 1.51827 -0.0363808 -0.0224738 1.51803 
-0.0367128 -0.0237847 1.51464 -0.0365403 -0.0237093 1.51458 -0.0368812 -0.0238612 1.51472 
-0.0365972 -0.0238964 1.51451 -0.0367654 -0.023969 1.51458 -0.036663 -0.0233387 1.51494 
-0.0368185 -0.0234229 1.51503 -0.0365828 -0.0231729 1.51502 -0.0369428 -0.0232966 1.51539 
-0.0372605 -0.023223 1.51652 -0.0371502 -0.0230886 1.51666 -0.037291 -0.0231985 1.51676 
-0.0372323 -0.0232477 1.51631 -0.0373607 -0.0233609 1.51642 -0.0370266 -0.022964 1.51678 
-0.0370606 -0.0229562 1.51698 -0.0369065 -0.0228561 1.51688 -0.0371748 -0.0230708 1.51687 
-0.0368845 -0.022865 1.51667 -0.0367387 -0.0227923 1.51632 -0.0366042 -0.0227113 1.51622 
-0.0365747 -0.0227175 1.51602 -0.0369286 -0.0230743 1.51589 -0.0370282 -0.0232178 1.51579 
-0.0370628 -0.0231784 1.51599 -0.0368925 -0.0231086 1.51568 -0.0374527 -0.0235054 1.51633 
-0.0373301 -0.0233932 1.51622 -0.0374213 -0.0235376 1.51613 -0.0375467 -0.0236567 1.51625 
-0.0371979 -0.0232835 1.5161 -0.03716 -0.0233221 1.5159 -0.0372938 -0.0234273 1.51602 
-0.0371977 -0.0237677 1.51514 -0.0372721 -0.0239396 1.51506 -0.0373445 -0.0238726 1.51524 
-0.0372581 -0.023708 1.51532 -0.0371146 -0.0236053 1.51522 -0.0370314 -0.023448 1.51531 
-0.0371675 -0.0235504 1.51541 -0.0370769 -0.0234022 1.5155 -0.0333938 -0.0241894 1.51459 
-0.0335735 -0.0241346 1.51452 -0.0334496 -0.0240059 1.51464 -0.03327 -0.0240634 1.51471 
-0.033219 -0.0242563 1.51466 -0.0335248 -0.0243292 1.51447 -0.0333444 -0.0243914 1.51454 
-0.0336657 -0.0244676 1.51436 -0.0337067 -0.0242712 1.5144 -0.0336315 -0.0246729 1.51432 
-0.0338267 -0.0246166 1.51428 -0.0338723 -0.0244481 1.51429 -0.0334771 -0.0245298 1.51444 
-0.032883 -0.0251365 1.51459 -0.0329215 -0.0249311 1.51461 -0.0330223 -0.025267 1.5145 
-0.0327116 -0.0252083 1.51466 -0.0328553 -0.0253333 1.51457 -0.0327475 -0.0250004 1.51469 
-0.03316 -0.0253788 1.51441 -0.0329892 -0.0254936 1.5145 -0.0333182 -0.0254464 1.51433 
-0.0332855 -0.0252843 1.51436 -0.0329605 -0.0247186 1.51464 -0.0327889 -0.0247926 1.51471 
-0.0329976 -0.0245198 1.51468 -0.0331384 -0.0246535 1.51457 -0.0310762 -0.0251939 1.51608 
-0.0309718 -0.0253056 1.5162 -0.0310763 -0.0253989 1.51608 -0.0310954 -0.0249898 1.5161 
-0.0309749 -0.0251056 1.51621 -0.0311983 -0.0250797 1.51597 -0.0313298 -0.0249631 1.51586 
-0.031363 -0.0247641 1.51588 -0.031228 -0.0248741 1.51599 -0.0314678 -0.0248516 1.51575 
-0.0314641 -0.0241839 1.516 -0.0314195 -0.0243662 1.51596 -0.0315546 -0.0242721 1.51586 
-0.0316052 -0.024084 1.51591 -0.0313189 -0.0242934 1.5161 -0.031512 -0.0240028 1.51605 
-0.030925 -0.0240979 1.51665 -0.0310917 -0.0242872 1.51634 -0.0309834 -0.0238997 1.51669 
-0.0308543 -0.0240241 1.5168 -0.030923 -0.0238179 1.51685 -0.030787 -0.0239545 1.51698 
-0.0307281 -0.0241374 1.51693 -0.0310663 -0.023682 1.51672 -0.0311131 -0.0235342 1.51678 
-0.0308535 -0.0235496 1.5173 -0.0309806 -0.0234422 1.51719 -0.0309152 -0.023606 1.51711 
-0.0307908 -0.0237182 1.51722 -0.0307228 -0.0236493 1.5174 -0.0303083 -0.0239446 1.51769 
-0.03039 -0.0240159 1.51752 -0.0303789 -0.0237768 1.51777 -0.0302345 -0.0238803 1.51787 
-0.0302408 -0.0241235 1.51763 -0.0303466 -0.0244702 1.51726 -0.030429 -0.0245614 1.51709 
-0.0302724 -0.0243887 1.5174 -0.0303018 -0.0246741 1.5172 -0.0302147 -0.0245782 1.51735 
-0.0306507 -0.0235823 1.51757 -0.0305179 -0.0236759 1.51767 -0.0306091 -0.024246 1.51704 
-0.0305531 -0.0244427 1.51699 -0.0306671 -0.0240631 1.51709 -0.0308564 -0.0230842 1.5178 
-0.0308048 -0.0230318 1.51799 -0.0307237 -0.0231913 1.5179 -0.0309202 -0.0231512 1.51762 
-0.0310415 -0.022771 1.51803 -0.0311746 -0.0226561 1.51813 -0.0310122 -0.022745 1.51827 
-0.0308939 -0.0228726 1.51813 -0.0312069 -0.0226854 1.51793 -0.0313237 -0.022553 1.51826 
-0.0313375 -0.0225816 1.51805 -0.0314787 -0.0224855 1.51817 -0.0313002 -0.0225402 1.51849 
-0.0311631 -0.0226307 1.51837 -0.0314564 -0.0224645 1.51839 -0.0350933 -0.0234893 1.51437 
-0.0349577 -0.0233461 1.51448 -0.0348839 -0.0235166 1.5144 -0.035025 -0.0236564 1.5143 
-0.0351678 -0.0233193 1.51447 -0.0352309 -0.0236379 1.51429 -0.035326 -0.0234422 1.51438 
-0.0359957 -0.0225089 1.51537 -0.0361193 -0.0226328 1.51525 -0.0358616 -0.0224126 1.51551 
-0.0357909 -0.0224749 1.51532 -0.0361828 -0.0225706 1.51544 -0.0360583 -0.0224684 1.51557 
-0.0355655 -0.0234679 1.51435 -0.0357759 -0.023493 1.51436 -0.0356571 -0.0236074 1.51428 
-0.035458 -0.0236445 1.51428 -0.0354879 -0.0233117 1.51446 -0.0362173 -0.0232948 1.51464 
-0.036288 -0.0234718 1.51457 -0.0364024 -0.0233529 1.5147 -0.0363258 -0.0231846 1.51477 
-0.0360942 -0.0234184 1.51451 -0.0361321 -0.0231291 1.51472 -0.0360388 -0.0229726 1.51482 
-0.0358341 -0.022941 1.51478 -0.0359309 -0.0230898 1.51468 -0.0362351 -0.0230229 1.51486 
-0.0361358 -0.022868 1.51497 -0.0359381 -0.0228277 1.51492 -0.0359701 -0.0235396 1.51439 
-0.035824 -0.0236724 1.51428 -0.0360455 -0.0237208 1.51433 -0.0361675 -0.0235931 1.51445 
-0.0362253 -0.0227747 1.51513 -0.036032 -0.0227212 1.51508 -0.0363061 -0.0227041 1.51532 
-0.0364054 -0.0228493 1.51521 -0.0363252 -0.0229295 1.51503 -0.0350295 -0.021093 1.5196 
-0.0351222 -0.021217 1.5196 -0.0348934 -0.021048 1.51955 -0.0349522 -0.0212144 1.5195 
-0.0350088 -0.0209197 1.51966 -0.0348547 -0.0213312 1.51938 -0.0349417 -0.0214878 1.5193 
-0.0350343 -0.0213782 1.51944 -0.0347809 -0.021168 1.51945 -0.034673 -0.0212923 1.51933 
-0.0347638 -0.0214477 1.51924 -0.0350456 -0.0216374 1.5192 -0.0351242 -0.0215402 1.51937 
-0.0352264 -0.0217006 1.51926 -0.0348673 -0.0215868 1.51914 -0.0349779 -0.0217188 1.51902 
-0.0351602 -0.0217738 1.51908 -0.0343255 -0.0208976 1.51946 -0.0342609 -0.0207423 1.51953 
-0.0341683 -0.0210142 1.51939 -0.0343909 -0.0210769 1.51938 -0.0341612 -0.0208609 1.51948 
-0.034528 -0.0209485 1.51947 -0.0338581 -0.0214059 1.51891 -0.0336838 -0.0214231 1.51885 
-0.0337969 -0.0214771 1.51873 -0.0340097 -0.0214921 1.51877 -0.0340733 -0.0214192 1.51895 
-0.0339327 -0.0213178 1.51908 -0.0336726 -0.0213367 1.51904 -0.0362162 -0.0223763 1.51838 
-0.0362217 -0.022378 1.51859 -0.0360688 -0.0222967 1.51848 -0.0355438 -0.0220902 1.51824 
-0.0353797 -0.0220183 1.51839 -0.0353607 -0.0220315 1.51817 -0.0357105 -0.0221636 1.51808 
-0.0357254 -0.0221528 1.51832 -0.0355248 -0.0221036 1.51801 -0.0355611 -0.0220802 1.51847 
-0.0355685 -0.022066 1.51869 -0.0357564 -0.02215 1.51858 -0.0354199 -0.0219855 1.51882 
-0.0353971 -0.0220069 1.51859 -0.0355917 -0.0220522 1.5189 -0.0357032 -0.022115 1.51878 
-0.0352853 -0.0218874 1.51895 -0.0351091 -0.0218312 1.51889 -0.0352477 -0.0219261 1.51875 
-0.0354515 -0.0219539 1.51902 -0.0353311 -0.0218386 1.51913 -0.0330182 -0.0211633 1.5197 
-0.0330752 -0.0212432 1.51951 -0.0331311 -0.0209997 1.51982 -0.0332726 -0.0211862 1.51946 
-0.0328902 -0.0213112 1.51957 -0.0330127 -0.0214243 1.51921 -0.0331431 -0.0213129 1.51933 
-0.0334877 -0.0214176 1.51889 -0.0333323 -0.0214929 1.51877 -0.0335736 -0.0214849 1.5187 
-0.0334321 -0.021341 1.51909 -0.0332784 -0.0214342 1.51896 -0.0299254 -0.0247733 1.51755 
-0.0302943 -0.0263736 1.51721 -0.0303894 -0.0262716 1.51707 -0.0301987 -0.026464 1.51736 
-0.0301381 -0.0262609 1.51732 -0.030245 -0.0261683 1.51717 -0.0301033 -0.0265477 1.51753 
-0.030175 -0.0267265 1.51759 -0.0302658 -0.0266478 1.51742 -0.0364759 -0.0240259 1.51439 
-0.0362854 -0.0239634 1.51433 -0.0363371 -0.0241784 1.51429 -0.0365132 -0.0242288 1.51434 
-0.0364184 -0.023835 1.51445 -0.0377256 -0.0242202 1.51559 -0.037765 -0.0241751 1.51579 
-0.0376413 -0.0240472 1.51566 -0.0376016 -0.0240924 1.51547 -0.0376735 -0.0242722 1.5154 
-0.037794 -0.0243932 1.51552 -0.0374778 -0.023981 1.51535 -0.0375448 -0.0241508 1.51528 
-0.0374126 -0.0240419 1.51517 -0.0375234 -0.02393 1.51554 -0.0373987 -0.0238214 1.51543 
-0.0304107 -0.0244967 1.52147 -0.030468 -0.0243162 1.52142 -0.0305352 -0.0243765 1.5216 
-0.0306107 -0.0237521 1.52125 -0.0305631 -0.023939 1.5213 -0.0306882 -0.0238217 1.52143 
-0.0306524 -0.0235647 1.5212 -0.0305116 -0.0236659 1.5211 -0.030068 -0.0249035 1.52133 
-0.0299776 -0.0248193 1.52118 -0.0300297 -0.024633 1.52112 -0.0295977 -0.0242017 1.51934 
-0.0296799 -0.0240412 1.51945 -0.0295979 -0.0242062 1.51956 -0.0295201 -0.0243687 1.51944 
-0.0295202 -0.0243463 1.51922 -0.0296003 -0.0242052 1.51912 -0.0296923 -0.0240459 1.51923 
-0.0301084 -0.0237867 1.52076 -0.030155 -0.023603 1.52071 -0.0299723 -0.0238917 1.52065 
-0.0300271 -0.0237115 1.52059 -0.0300572 -0.0239809 1.52082 -0.0296413 -0.0256015 1.52088 
-0.0297017 -0.0257364 1.52103 -0.0295857 -0.0256288 1.52067 -0.0296174 -0.0254257 1.52082 
-0.0296896 -0.0255039 1.52101 -0.0296032 -0.0242214 1.51979 -0.0296164 -0.0242359 1.52 
-0.0295468 -0.0244219 1.51989 -0.0296808 -0.0240373 1.5199 -0.0296739 -0.0240392 1.51967 
-0.0295318 -0.0243897 1.51967 -0.0296169 -0.0252245 1.52079 -0.0296886 -0.0252907 1.52097 
-0.0295639 -0.0253945 1.52062 -0.0295625 -0.0251676 1.52059 -0.0296312 -0.0250129 1.52076 
-0.029711 -0.0250724 1.52094 -0.029833 -0.02494 1.52106 -0.0298705 -0.0247477 1.52102 
-0.0297387 -0.0248793 1.52091 -0.0299134 -0.025031 1.52121 -0.0297882 -0.0251568 1.5211 
-0.0294472 -0.0254395 1.52007 -0.0293921 -0.0255968 1.51993 -0.0293847 -0.0253996 1.51988 
-0.0294865 -0.0252749 1.52022 -0.0294977 -0.0254987 1.52027 -0.0294468 -0.0252456 1.52004 
-0.0293709 -0.0249594 1.51965 -0.0293402 -0.0251559 1.51966 -0.0292868 -0.0250917 1.51947 
-0.0293265 -0.0248996 1.51943 -0.029407 -0.0247662 1.5196 -0.0312911 -0.0225286 1.5187 
-0.0312792 -0.0225163 1.5189 -0.031172 -0.0225965 1.51879 -0.0314263 -0.0224354 1.51882 
-0.0311415 -0.0226267 1.51861 -0.0314364 -0.0224537 1.5186 -0.0309773 -0.0227433 1.51853 
-0.0308512 -0.0228309 1.51869 -0.0308276 -0.0228646 1.51851 -0.0310174 -0.0227019 1.51879 
-0.0308719 -0.0228475 1.51834 -0.0303223 -0.0234961 1.51822 -0.0301855 -0.0236208 1.51834 
-0.0302447 -0.0236574 1.51813 -0.0304075 -0.0233417 1.5183 -0.0302819 -0.0234619 1.51842 
-0.0303794 -0.0235589 1.51802 -0.0306727 -0.0231324 1.51809 -0.0305369 -0.0232356 1.51819 
-0.0307574 -0.0229806 1.51822 -0.0306335 -0.0230902 1.51828 -0.0307332 -0.0229624 1.51842 
-0.0298297 -0.0239697 1.51869 -0.0299492 -0.0238481 1.51857 -0.0297404 -0.0241138 1.5186 
-0.0299215 -0.0238256 1.51878 -0.0298066 -0.0239461 1.5189 -0.0297171 -0.0240861 1.5188 
-0.0300682 -0.0237318 1.51846 -0.029981 -0.023886 1.51836 -0.030106 -0.0237773 1.51825 
-0.03016 -0.0235814 1.51855 -0.030046 -0.0236959 1.51867 -0.0322444 -0.0216143 1.51987 
-0.0324484 -0.0215777 1.51958 -0.0323953 -0.0215291 1.51979 -0.0322129 -0.0218147 1.51938 
-0.0315534 -0.0223412 1.51894 -0.0316825 -0.022236 1.51907 -0.0315286 -0.0223164 1.51915 
-0.0314023 -0.0224201 1.51903 -0.0317083 -0.0222627 1.51886 -0.0315771 -0.0223605 1.51873 
-0.0318104 -0.0221266 1.5192 -0.0316559 -0.0222074 1.51928 -0.0319686 -0.0220427 1.51912 
-0.0319362 -0.022013 1.51933 -0.031779 -0.0220983 1.51941 -0.0318375 -0.0221567 1.51899 
-0.0305648 -0.0227859 1.51989 -0.0305205 -0.0227457 1.5201 -0.0304635 -0.0229236 1.51977 
-0.0307181 -0.022698 1.5198 -0.0306668 -0.0226462 1.52 -0.0306065 -0.0228297 1.51968 
-0.0303562 -0.0230585 1.51966 -0.0304978 -0.0229619 1.51956 -0.0302221 -0.0231648 1.51977 
-0.0302118 -0.0231801 1.52039 -0.0300944 -0.0232656 1.52008 -0.030142 -0.0233528 1.52047 
-0.0303281 -0.0230575 1.52051 -0.030388 -0.0231209 1.5207 -0.0302669 -0.0232306 1.52059 
-0.030405 -0.0228829 1.52042 -0.0304466 -0.0229332 1.52063 -0.0312532 -0.0225051 1.51911 
-0.0313757 -0.0223991 1.51924 -0.0311321 -0.0226066 1.51897 -0.0312255 -0.0224864 1.51932 
-0.0311037 -0.0225952 1.51919 -0.0301088 -0.0232694 1.51988 -0.0300143 -0.0234206 1.51981 
-0.0301238 -0.0233029 1.51968 -0.0300251 -0.0233752 1.51998 -0.0297957 -0.0239155 1.51911 
-0.0297007 -0.0240655 1.51901 -0.0297834 -0.0238921 1.51931 -0.0299046 -0.023798 1.51899 
-0.0298892 -0.0237696 1.5192 -0.0307776 -0.0225111 1.52012 -0.0306284 -0.0226055 1.52022 
-0.0308319 -0.0225683 1.51991 -0.0309458 -0.0224384 1.52002 -0.0309034 -0.0223892 1.52023 
-0.030502 -0.0227348 1.52032 -0.0305257 -0.0227621 1.52054 -0.031041 -0.0222887 1.52034 
-0.0310457 -0.0222807 1.52054 -0.0310664 -0.0223176 1.52013 -0.0311936 -0.0222133 1.52026 
-0.0311807 -0.0222047 1.52044 -0.0305852 -0.0228173 1.52074 -0.0306773 -0.0229 1.52092 
-0.0305242 -0.0230026 1.52081 -0.0307438 -0.0227166 1.52085 -0.032092 -0.0217011 1.51996 
-0.0319393 -0.0217857 1.52005 -0.0322088 -0.0215634 1.52008 -0.0323485 -0.0214823 1.51999 
-0.0323222 -0.0214293 1.52019 -0.0321767 -0.021531 1.52027 -0.0320558 -0.0216589 1.52016 
-0.0317517 -0.0220678 1.51961 -0.031636 -0.0221755 1.51948 -0.0315983 -0.0221463 1.5197 
-0.0319092 -0.0219804 1.51953 -0.0315015 -0.0222884 1.51937 -0.0314747 -0.0222609 1.51957 
-0.0313547 -0.0223698 1.51945 -0.0319589 -0.0218052 1.52085 -0.0318179 -0.0218923 1.52075 
-0.0319263 -0.0217744 1.52066 -0.0318562 -0.0219267 1.52095 -0.0320966 -0.0217083 1.52095 
-0.032066 -0.021672 1.52076 -0.0323008 -0.0214947 1.52098 -0.0322 -0.0215699 1.52087 
-0.0317641 -0.0221498 1.52127 -0.031889 -0.0219878 1.52115 -0.0314455 -0.022252 1.52105 
-0.0313442 -0.0221233 1.52051 -0.0312993 -0.0221447 1.52036 -0.0314558 -0.0220564 1.52034 
-0.0315058 -0.0220474 1.52057 -0.0313743 -0.0221386 1.5207 -0.0312063 -0.0222054 1.52062 
-0.0310792 -0.022301 1.52074 -0.0311445 -0.0223607 1.52092 -0.0310558 -0.0227862 1.52122 
-0.0311206 -0.0228762 1.52142 -0.0309963 -0.0229893 1.52132 -0.0311956 -0.02269 1.52132 
-0.0307763 -0.0229925 1.52106 -0.0308712 -0.023089 1.52121 -0.0307394 -0.0231863 1.52111 
-0.0306303 -0.023097 1.52097 -0.0335243 -0.020488 1.51999 -0.0333588 -0.0206016 1.52004 
-0.0332983 -0.0204642 1.52025 -0.0331587 -0.0207126 1.52014 -0.0331312 -0.0205773 1.52035 
-0.0330293 -0.0207354 1.52029 -0.0329861 -0.0208539 1.52018 -0.0330639 -0.0209039 1.52001 
-0.0332465 -0.0208139 1.51993 -0.0329092 -0.0208216 1.52035 -0.032871 -0.0207879 1.52052 
-0.0327795 -0.0209233 1.52042 -0.0329992 -0.0206787 1.52044 -0.0328251 -0.0209634 1.52025 
-0.034164 -0.0205754 1.51961 -0.0340849 -0.0207545 1.51954 -0.0343387 -0.0203953 1.51967 
-0.0331491 -0.0206486 1.52155 -0.0332483 -0.0207394 1.52167 -0.0331291 -0.020844 1.52157 
-0.0330422 -0.0207044 1.52141 -0.0331019 -0.0204382 1.52142 -0.0332344 -0.0205106 1.52164 
-0.0329246 -0.020838 1.52129 -0.0328846 -0.0207596 1.5211 -0.0329819 -0.0206029 1.52122 
-0.0329975 -0.0209142 1.52144 -0.032863 -0.0210298 1.52135 -0.0328042 -0.0209595 1.52118 
-0.0322507 -0.022018 1.52245 -0.0320729 -0.0221178 1.52232 -0.0321765 -0.0219862 1.52263 
-0.0320311 -0.0220761 1.5225 -0.0324625 -0.0219616 1.52235 -0.03242 -0.0219474 1.52259 
-0.0329718 -0.0218182 1.52227 -0.0330944 -0.0217121 1.52212 -0.0331729 -0.0217827 1.52229 
-0.0328503 -0.0218787 1.52239 -0.0327843 -0.021853 1.52221 -0.0330502 -0.0218609 1.52246 
-0.0326724 -0.0210727 1.52105 -0.0325821 -0.0212266 1.52112 -0.0326494 -0.0210366 1.52085 
-0.0327631 -0.0209192 1.52098 -0.0323173 -0.0214271 1.52083 -0.0323002 -0.0214068 1.52063 
-0.032188 -0.0215331 1.52069 -0.0333862 -0.0208484 1.52178 -0.0335442 -0.0209522 1.52187 
-0.0333805 -0.0210471 1.52181 -0.0332387 -0.0209415 1.52169 -0.0335618 -0.0207337 1.52188 
-0.0333705 -0.0206347 1.52177 -0.0337317 -0.0210941 1.52196 -0.0337233 -0.0208371 1.52195 
-0.0338203 -0.0212866 1.52203 -0.0336347 -0.0213111 1.52199 -0.0335154 -0.0211641 1.5219 
-0.0331896 -0.0215846 1.522 -0.0330907 -0.0214885 1.52186 -0.0332839 -0.0216764 1.52215 
-0.0332669 -0.0214299 1.52191 -0.0333736 -0.0215374 1.52204 -0.0327222 -0.0211193 1.52013 
-0.0325814 -0.0212057 1.5202 -0.0326099 -0.0212617 1.52002 -0.0326837 -0.0210638 1.52032 
-0.032777 -0.0211723 1.51995 -0.0328816 -0.0210272 1.52005 -0.0324923 -0.0213974 1.51992 
-0.032551 -0.0214487 1.51971 -0.0324601 -0.0213448 1.5201 -0.0326553 -0.0213098 1.51985 
-0.032441 -0.0212961 1.5203 -0.0325488 -0.0211659 1.52044 -0.0323012 -0.0214033 1.52039 
-0.0294419 -0.0244968 1.51909 -0.0295253 -0.02434 1.51901 -0.0293782 -0.0246164 1.51893 
-0.0294645 -0.0244544 1.51892 -0.0294482 -0.02451 1.51931 -0.0293622 -0.0246781 1.51917 
-0.0291625 -0.0251062 1.51895 -0.0292192 -0.0249801 1.51906 -0.0291592 -0.0251765 1.51913 
-0.0292204 -0.0249597 1.51884 -0.029101 -0.0253138 1.51893 -0.0291504 -0.0251814 1.51875 
-0.0295957 -0.0261205 1.52035 -0.0296731 -0.0262423 1.52051 -0.0295385 -0.0261528 1.52017 
-0.0295675 -0.0259217 1.5204 -0.0291841 -0.0252551 1.51854 -0.0291091 -0.0254146 1.51869 
-0.029163 -0.0254677 1.51849 -0.0292345 -0.0250313 1.5186 -0.0292491 -0.0253149 1.51834 
-0.0296869 -0.0247963 1.51781 -0.0295551 -0.0249197 1.51793 -0.0296674 -0.0245343 1.51805 
-0.0300301 -0.023931 1.51817 -0.0301652 -0.0238245 1.51806 -0.029327 -0.0253928 1.51816 
-0.0292489 -0.0255396 1.5183 -0.0294241 -0.0254656 1.51799 -0.0294217 -0.0252493 1.51802 
-0.0291812 -0.0256527 1.51842 -0.0290997 -0.0256706 1.51862 -0.0291711 -0.0258421 1.51847 
-0.0291931 -0.026049 1.51849 -0.0291334 -0.0261355 1.51868 -0.0292323 -0.0262476 1.51852 
-0.0290997 -0.0259322 1.51865 -0.0344034 -0.0227453 1.52322 -0.0343563 -0.0225749 1.52313 
-0.034557 -0.0228454 1.52312 -0.0344475 -0.0229338 1.52328 -0.034375 -0.0218274 1.52224 
-0.034571 -0.0218748 1.5222 -0.0345056 -0.0216903 1.52214 -0.0343062 -0.0216431 1.52216 
-0.0341792 -0.0220303 1.52252 -0.0339926 -0.0219908 1.52256 -0.0341105 -0.0221092 1.52268 
-0.0352931 -0.0208545 1.51987 -0.0353475 -0.020689 1.51997 -0.0352284 -0.0206465 1.51989 
-0.0351437 -0.0207895 1.51979 -0.0365736 -0.0276059 1.515 -0.0364682 -0.0263109 1.51441 
-0.0366188 -0.0264651 1.51451 -0.0366668 -0.0262671 1.51446 -0.0363328 -0.0261505 1.51432 
-0.0362897 -0.0263502 1.51436 -0.0364295 -0.0265141 1.51446 -0.0365255 -0.0261029 1.51436 
-0.0362591 -0.0270617 1.51463 -0.0361915 -0.0272301 1.51469 -0.036322 -0.0268859 1.51457 
-0.0360554 -0.0270897 1.5146 -0.0364518 -0.0270171 1.51466 -0.0355536 -0.0268256 1.51441 
-0.0354699 -0.0269984 1.51446 -0.035707 -0.0269693 1.51449 -0.0356108 -0.0266403 1.51435 
-0.0354281 -0.0266989 1.51434 -0.0367551 -0.0266021 1.5146 -0.0368814 -0.026735 1.5147 
-0.0369333 -0.0265499 1.51465 -0.0365673 -0.0266532 1.51456 -0.0367029 -0.0267889 1.51465 
-0.0368075 -0.0264122 1.51456 -0.0368257 -0.026921 1.51476 -0.0370283 -0.0254024 1.51443 
-0.0368612 -0.025409 1.51434 -0.0344511 -0.0223279 1.51564 -0.0345205 -0.0224069 1.51547 
-0.0346497 -0.0223104 1.51562 -0.0345989 -0.0222488 1.51579 -0.0342482 -0.0223601 1.51568 
-0.0343147 -0.0224345 1.51551 -0.0348544 -0.0222911 1.5156 -0.0350804 -0.0222782 1.51559 
-0.0349823 -0.0222126 1.51581 -0.0347277 -0.022388 1.51545 -0.0347684 -0.0222382 1.51576 
-0.0349476 -0.022366 1.51543 -0.0347839 -0.0218672 1.51801 -0.0349478 -0.0219409 1.51784 
-0.0349808 -0.0219214 1.51805 -0.03482 -0.0218488 1.51822 -0.034739 -0.0218928 1.51779 
-0.034622 -0.0217964 1.51817 -0.0345817 -0.0218234 1.51797 -0.0351077 -0.0220153 1.51766 
-0.0349076 -0.0219682 1.51761 -0.035258 -0.0220832 1.51751 -0.0353026 -0.0220689 1.51772 
-0.0351439 -0.0219956 1.51789 -0.0346793 -0.0215415 1.51909 -0.0345733 -0.0214015 1.5192 
-0.0344931 -0.021494 1.51904 -0.0347903 -0.0216657 1.51897 -0.0346081 -0.0216159 1.51892 
-0.0348518 -0.0218335 1.51842 -0.0350108 -0.0219032 1.51827 -0.0350382 -0.0218896 1.51848 
-0.0348868 -0.0218171 1.51863 -0.0346967 -0.0217618 1.51858 -0.0346599 -0.0217784 1.51837 
-0.0343746 -0.0217921 1.51793 -0.0345274 -0.0218584 1.51776 -0.0344226 -0.0217556 1.51813 
-0.034161 -0.0217743 1.51788 -0.0341859 -0.0217202 1.51809 -0.0333932 -0.021817 1.51791 
-0.0333354 -0.021755 1.51809 -0.0331938 -0.0218425 1.51795 -0.0334492 -0.0218777 1.51773 
-0.0335946 -0.0218066 1.51787 -0.0332469 -0.021901 1.51777 -0.0335372 -0.0217495 1.51803 
-0.0329954 -0.0218868 1.51801 -0.0330452 -0.0219391 1.51782 -0.0329436 -0.0218355 1.51819 
-0.0328051 -0.0219448 1.51806 -0.0331372 -0.0217839 1.51814 -0.0328554 -0.0219934 1.51787 
-0.0336501 -0.0216911 1.51816 -0.033775 -0.0217366 1.51801 -0.0338292 -0.0216617 1.51821 
-0.0336544 -0.0216184 1.51835 -0.0334816 -0.0216845 1.51821 -0.034158 -0.0215785 1.51863 
-0.0342152 -0.0215212 1.51882 -0.0339463 -0.0215468 1.51859 -0.0340919 -0.0216168 1.51844 
-0.0343577 -0.0216205 1.51868 -0.0343103 -0.0216567 1.51849 -0.032709 -0.022088 1.51772 
-0.0325621 -0.0221502 1.51757 -0.0327768 -0.0221107 1.51752 -0.0326652 -0.022048 1.51792 
-0.0329048 -0.022039 1.51768 -0.032513 -0.0221284 1.51777 -0.0321821 -0.0220238 1.51863 
-0.0320231 -0.0221037 1.5187 -0.0320549 -0.022131 1.51849 -0.032307 -0.0219143 1.51876 
-0.0321432 -0.0219935 1.51884 -0.0323522 -0.0219536 1.51856 -0.0331791 -0.0215827 1.51864 
-0.0333799 -0.0215534 1.51858 -0.033227 -0.021639 1.51845 -0.0330341 -0.0216802 1.51851 
-0.0329832 -0.0216272 1.5187 -0.0331267 -0.0215289 1.51883 -0.0328932 -0.0217841 1.51838 
-0.0328459 -0.0217325 1.51857 -0.032707 -0.0218401 1.51844 -0.0330848 -0.0217331 1.51832 
-0.0327571 -0.0218922 1.51825 -0.032676 -0.021607 1.51912 -0.0325207 -0.0216614 1.5192 
-0.0325641 -0.021698 1.51901 -0.0327503 -0.0216341 1.51895 -0.0328814 -0.0215295 1.51908 
-0.0326254 -0.0215769 1.51928 -0.032525 -0.021896 1.5185 -0.0325735 -0.02195 1.5183 
-0.0326605 -0.0217892 1.51863 -0.0324762 -0.0218481 1.51869 -0.0324349 -0.0218048 1.51889 
-0.032614 -0.02174 1.51882 -0.0324003 -0.0217672 1.51909 -0.0322663 -0.021883 1.51896 
-0.0325914 -0.0237799 1.51523 -0.0327692 -0.023741 1.51514 -0.0330004 -0.023524 1.51515 
-0.0325979 -0.0234499 1.51546 -0.0324582 -0.0242092 1.5151 -0.0326342 -0.0241278 1.51502 
-0.0322973 -0.0242912 1.51516 -0.0324103 -0.0244107 1.51504 -0.0319371 -0.0241788 1.51552 
-0.0320251 -0.0242802 1.51538 -0.0318456 -0.0240861 1.51567 -0.0317919 -0.0242678 1.51562 
-0.0318764 -0.0243714 1.51548 -0.0329391 -0.0237006 1.51508 -0.0328694 -0.0238748 1.51502 
-0.033107 -0.023648 1.51502 -0.0330437 -0.0238227 1.51496 -0.0331557 -0.0239442 1.51484 
-0.0333317 -0.0238843 1.51477 -0.0330973 -0.0241265 1.51478 -0.0329799 -0.0240017 1.5149 
-0.0332181 -0.023767 1.5149 -0.0315667 -0.0238095 1.5161 -0.0317137 -0.0237139 1.51601 
-0.0316149 -0.0236227 1.51616 -0.0314631 -0.0237183 1.51626 -0.0316586 -0.0239012 1.51596 
-0.0317529 -0.0239936 1.51581 -0.0319025 -0.0239029 1.51572 -0.0318079 -0.0238079 1.51587 
-0.0316977 -0.0241764 1.51577 -0.0325281 -0.0228241 1.5161 -0.032709 -0.0227645 1.51605 
-0.032444 -0.0227322 1.51625 -0.0323455 -0.0228852 1.51616 -0.0324328 -0.0229763 1.51601 
-0.0326112 -0.0229165 1.51595 -0.0319886 -0.0227547 1.51654 -0.0320779 -0.022847 1.51638 
-0.0318098 -0.02283 1.51661 -0.0321765 -0.0226933 1.51647 -0.0321677 -0.0231917 1.51598 
-0.0320745 -0.0230968 1.51613 -0.0318989 -0.0231681 1.51621 -0.0317685 -0.0235268 1.51607 
-0.0325158 -0.0233365 1.51561 -0.0326978 -0.0232616 1.51554 -0.0326063 -0.0231667 1.5157 
-0.0324284 -0.0232293 1.51576 -0.0315493 -0.0227984 1.51707 -0.0314419 -0.0229519 1.51698 
-0.0315883 -0.0228502 1.51688 -0.0316929 -0.022701 1.51698 -0.0316617 -0.0226588 1.51718 
-0.0315057 -0.0227533 1.51726 -0.0320402 -0.0223242 1.51754 -0.0320046 -0.0223016 1.51774 
-0.0318744 -0.0223946 1.51761 -0.0322102 -0.0222616 1.51747 -0.0321829 -0.0222369 1.51767 
-0.0320695 -0.0223525 1.51734 -0.0319038 -0.0224254 1.51741 -0.0319734 -0.0222781 1.51795 
-0.0318388 -0.0223706 1.51782 -0.0321507 -0.0222113 1.51788 -0.0319445 -0.0222541 1.51815 
-0.0318069 -0.0223475 1.51802 -0.031778 -0.0225374 1.51729 -0.0316322 -0.0226089 1.51738 
-0.0319307 -0.0224591 1.51722 -0.0318118 -0.0225726 1.5171 -0.0315534 -0.0230854 1.51661 
-0.0315714 -0.0233455 1.51638 -0.0314207 -0.0234352 1.51648 -0.0346777 -0.023546 1.51443 
-0.0348196 -0.0236888 1.51432 -0.0347483 -0.0233826 1.5145 -0.0345414 -0.0234213 1.51454 
-0.0344714 -0.023588 1.51446 -0.0346215 -0.0237238 1.51435 -0.0348343 -0.0232153 1.51458 
-0.035042 -0.0231915 1.51456 -0.0347156 -0.023097 1.51468 -0.0346236 -0.0232614 1.51461 
-0.0349287 -0.0230545 1.51467 -0.0341908 -0.0225552 1.51538 -0.0339915 -0.022598 1.51543 
-0.0340753 -0.022685 1.51526 -0.0342778 -0.0226447 1.51522 -0.0341148 -0.0224754 1.51555 
-0.0343971 -0.0225179 1.51534 -0.0355004 -0.022122 1.51779 -0.0353355 -0.0220486 1.51795 
-0.0354732 -0.0221439 1.51756 -0.0356647 -0.0221953 1.51762 -0.0356901 -0.0221771 1.51785 
-0.0357539 -0.0223044 1.51702 -0.0357127 -0.0223099 1.51678 -0.0358841 -0.0223581 1.51689 
-0.0355909 -0.0222605 1.51697 -0.0357935 -0.0222882 1.51724 -0.0356064 -0.0222383 1.51717 
-0.0359465 -0.0223574 1.51707 -0.0358229 -0.0222675 1.51746 -0.0359879 -0.0223414 1.5173 
-0.0360136 -0.0223243 1.51753 -0.0356346 -0.0222167 1.5174 -0.0358541 -0.02225 1.51769 
-0.0357894 -0.0223327 1.51655 -0.0357553 -0.0223092 1.51629 -0.0359903 -0.0223994 1.51643 
-0.0359189 -0.0223788 1.51668 -0.0355582 -0.0222594 1.51653 -0.0353082 -0.0222892 1.51557 
-0.0351699 -0.0223594 1.51541 -0.0355189 -0.0223024 1.51558 -0.0354229 -0.0222564 1.51572 
-0.0354166 -0.0223755 1.51539 -0.0352419 -0.0222345 1.51576 -0.0358161 -0.0223168 1.51606 
-0.0356061 -0.0222536 1.51605 -0.0357687 -0.0223098 1.51586 -0.0359611 -0.0223709 1.51593 
-0.0359754 -0.0223805 1.51616 -0.0357254 -0.0223341 1.51565 -0.0355819 -0.0222701 1.51578 
-0.035653 -0.0223796 1.51545 -0.0359193 -0.0223815 1.51571 -0.036744 -0.0227724 1.51654 
-0.0367561 -0.0227626 1.51677 -0.03661 -0.0226913 1.51643 -0.0367691 -0.0227497 1.517 
-0.036617 -0.0226488 1.51713 -0.0369209 -0.0228373 1.5171 -0.0367713 -0.022729 1.51723 
-0.0364887 -0.0226281 1.51632 -0.0364517 -0.0226215 1.51616 -0.0363308 -0.0225418 1.51631 
-0.0364789 -0.022558 1.51728 -0.0363427 -0.022473 1.51743 -0.0363105 -0.0224796 1.5172 
-0.0366342 -0.0226388 1.51735 -0.0345937 -0.0229717 1.5148 -0.0343831 -0.0230176 1.51484 
-0.0344978 -0.0231345 1.51472 -0.0344836 -0.0228614 1.51493 -0.0348083 -0.0229398 1.51478 
-0.0346978 -0.0228273 1.51491 -0.0343759 -0.0227473 1.51507 -0.0342763 -0.0229008 1.51497 
-0.034586 -0.0227154 1.51504 -0.0344817 -0.0226098 1.51519 -0.0345978 -0.0224914 1.51531 
-0.0348162 -0.0224722 1.51529 -0.0346901 -0.0225874 1.51516 -0.0344192 -0.0232919 1.51465 
-0.0342945 -0.0231705 1.51476 -0.0343387 -0.0234596 1.51457 -0.0342156 -0.0233314 1.51468 
-0.0341843 -0.023057 1.51488 -0.0339901 -0.0230997 1.51493 -0.034098 -0.023213 1.5148 
-0.0334251 -0.0232503 1.51509 -0.0333508 -0.0234202 1.51502 -0.0335081 -0.0230864 1.51517 
-0.0338879 -0.0237089 1.51458 -0.0336919 -0.0237656 1.51464 -0.0338167 -0.0238934 1.5145 
-0.0339524 -0.0235402 1.51465 -0.0340813 -0.0236659 1.51453 -0.0381679 -0.0251959 1.51983 
-0.0382632 -0.0253423 1.51969 -0.0381024 -0.0252723 1.52 -0.038225 -0.0251434 1.51965 
-0.0381214 -0.0250038 1.51979 -0.0376918 -0.0246932 1.52033 -0.0377673 -0.0246308 1.52016 
-0.0376507 -0.0245044 1.52028 -0.0377388 -0.0248868 1.52038 -0.0376214 -0.0247709 1.5205 
-0.0374107 -0.025011 1.52098 -0.0375205 -0.0251541 1.52087 -0.0374833 -0.0249322 1.52082 
-0.0370458 -0.0285437 1.52088 -0.0372064 -0.0281968 1.52103 -0.0369994 -0.0279914 1.52132 
-0.0369608 -0.0272641 1.52152 -0.0370945 -0.0273901 1.52142 -0.036943 -0.0274676 1.52149 
-0.0368021 -0.0273429 1.5216 -0.0369812 -0.0270398 1.52154 -0.0368295 -0.027131 1.52162 
-0.0372253 -0.027506 1.52132 -0.0372485 -0.0272769 1.52135 -0.037375 -0.0273974 1.52123 
-0.0373511 -0.0276202 1.52119 -0.0372029 -0.027706 1.52128 -0.0370722 -0.0275911 1.52139 
-0.0375035 -0.0272853 1.52112 -0.0376026 -0.0273958 1.52096 -0.0375075 -0.0270737 1.52115 
-0.0374867 -0.0275008 1.52108 -0.0373949 -0.0271857 1.52125 -0.0366937 -0.027015 1.52171 
-0.0366705 -0.0272194 1.52169 -0.036712 -0.0267899 1.52173 -0.0368473 -0.0269135 1.52163 
-0.0365356 -0.0270911 1.5218 -0.0365617 -0.0268826 1.52181 -0.0369988 -0.0268141 1.52155 
-0.0368588 -0.0266905 1.52164 -0.0371612 -0.0266982 1.52145 -0.0367271 -0.0265671 1.52174 
-0.0365829 -0.0266672 1.52183 -0.0374542 -0.0277126 1.52103 -0.0375801 -0.0276027 1.52092 
-0.037544 -0.027804 1.52087 -0.0374125 -0.0279117 1.52099 -0.0373174 -0.0278177 1.52114 
-0.037694 -0.0274807 1.52079 -0.0377733 -0.0275741 1.52062 -0.0376661 -0.0276888 1.52075 
-0.0337706 -0.0288099 1.51552 -0.0341334 -0.028988 1.51555 -0.0340258 -0.0290994 1.51569 
-0.0352885 -0.0294897 1.51603 -0.0350606 -0.0294736 1.51598 -0.0353941 -0.0295697 1.51619 
-0.0355096 -0.029482 1.51605 -0.035243 -0.0294009 1.51587 -0.0354733 -0.0300879 1.51803 
-0.0357096 -0.0300978 1.5185 -0.03574 -0.0294503 1.51607 -0.0356117 -0.0295568 1.5162 
-0.0358288 -0.0295283 1.51622 -0.0359535 -0.0294077 1.5161 -0.0358682 -0.0293239 1.51595 
-0.0354904 -0.0296417 1.51634 -0.0353443 -0.029726 1.51648 -0.0355759 -0.0297193 1.51649 
-0.0357074 -0.0296286 1.51635 -0.0337269 -0.0286472 1.51539 -0.0338455 -0.0285512 1.51526 
-0.0336486 -0.0284918 1.5153 -0.0333991 -0.0287939 1.51575 -0.033314 -0.028899 1.51593 
-0.0328923 -0.0290215 1.5165 -0.0327147 -0.0289122 1.51656 -0.0328175 -0.0290939 1.51667 
-0.0329741 -0.0291821 1.5166 -0.032795 -0.028828 1.51638 -0.03271 -0.0286168 1.51624 
-0.0326026 -0.0287151 1.51645 -0.0334705 -0.0284399 1.51536 -0.0324207 -0.0294637 1.51843 
-0.0322772 -0.0293639 1.51849 -0.0325758 -0.0295524 1.51834 -0.0324477 -0.0294567 1.51821 
-0.0325479 -0.0295446 1.51855 -0.0333722 -0.0298742 1.5184 -0.0332297 -0.0298247 1.5183 
-0.0332105 -0.0298184 1.51855 -0.0334288 -0.0298755 1.51859 -0.0335863 -0.0299276 1.51839 
-0.0327408 -0.0296301 1.51828 -0.0327815 -0.0296093 1.51806 -0.0326103 -0.0295387 1.51813 
-0.0327166 -0.0296308 1.51848 -0.0328757 -0.0296968 1.51842 -0.0329339 -0.0297016 1.5182 
-0.0325838 -0.0290609 1.51691 -0.0324658 -0.0288851 1.5168 -0.0322782 -0.0289024 1.51709 
-0.0320773 -0.0286178 1.51692 -0.0321761 -0.0287626 1.517 -0.0319263 -0.0285386 1.51704 
-0.0320137 -0.0286683 1.5171 -0.034596 -0.0301014 1.51824 -0.0348277 -0.0301111 1.51824 
-0.0346819 -0.030096 1.51805 -0.0344472 -0.0300852 1.51812 -0.0344409 -0.0300827 1.51835 
-0.0346567 -0.030099 1.51841 -0.0349409 -0.030061 1.51887 -0.0351719 -0.0300782 1.51886 
-0.0348734 -0.0301102 1.51845 -0.034322 -0.0299548 1.51896 -0.0344977 -0.0300181 1.51879 
-0.0342808 -0.0299952 1.51874 -0.0341031 -0.0299305 1.51892 -0.0341756 -0.0298964 1.51914 
-0.0345435 -0.0299813 1.519 -0.0326717 -0.0296053 1.51865 -0.0328644 -0.0296917 1.51865 
-0.0327256 -0.0296173 1.51883 -0.0350624 -0.030106 1.51813 -0.0350882 -0.0301159 1.51833 
-0.0352574 -0.0300913 1.51802 -0.0350424 -0.0300845 1.51792 -0.0348605 -0.0300989 1.51805 
-0.0336546 -0.0220555 1.52294 -0.033856 -0.022114 1.5229 -0.0336223 -0.0220907 1.52314 
-0.0337113 -0.0220093 1.52276 -0.0334679 -0.0220102 1.52299 -0.0335216 -0.0219739 1.52279 
-0.0328851 -0.0218501 1.5233 -0.0327346 -0.0217786 1.52343 -0.0330484 -0.0219087 1.52316 
-0.0330737 -0.0218936 1.52339 -0.032846 -0.0218787 1.52306 -0.0329009 -0.024236 1.52414 
-0.0329747 -0.0240527 1.52421 -0.0331202 -0.0242056 1.52411 -0.0330446 -0.0244218 1.52405 
-0.0327866 -0.0244035 1.52407 -0.0326752 -0.0242398 1.52416 -0.0327785 -0.0240852 1.52424 
-0.0334176 -0.0237399 1.52414 -0.0334538 -0.0235384 1.52418 -0.0335825 -0.0236587 1.52407 
-0.0332905 -0.0236215 1.52425 -0.0333762 -0.0239437 1.5241 -0.0332383 -0.0238061 1.52421 
-0.0335457 -0.0238702 1.52404 -0.0336748 -0.0239953 1.52393 -0.0335067 -0.0240778 1.524 
-0.0338061 -0.0241281 1.52383 -0.0336383 -0.0242111 1.5239 -0.033836 -0.0239155 1.52385 
-0.0337088 -0.0237899 1.52396 -0.03241 -0.0237381 1.52462 -0.0325735 -0.0238045 1.52451 
-0.0323507 -0.0238565 1.52452 -0.0325591 -0.0236161 1.52467 -0.0322176 -0.0237574 1.52464 
-0.0330157 -0.0230866 1.52467 -0.0328983 -0.0234669 1.52459 -0.0328181 -0.0233544 1.52471 
-0.0326703 -0.0239507 1.52436 -0.032565 -0.0241005 1.52427 -0.032461 -0.0239698 1.52439 
-0.0327657 -0.0238198 1.52442 -0.0328689 -0.0239172 1.52431 -0.0331767 -0.0235086 1.52437 
-0.0331149 -0.0236914 1.52433 -0.0330026 -0.0235773 1.52446 -0.0333391 -0.0234288 1.52428 
-0.0322382 -0.0239941 1.52439 -0.0323505 -0.024102 1.52427 -0.0321346 -0.0240978 1.52425 
-0.0320155 -0.0239862 1.52437 -0.0321119 -0.0238773 1.52452 -0.0320403 -0.024188 1.52409 
-0.0322484 -0.0242155 1.52413 -0.0319219 -0.0240722 1.52422 -0.0318477 -0.0241424 1.52404 
-0.0324604 -0.0242309 1.52415 -0.032568 -0.024376 1.52406 -0.0323535 -0.024347 1.52402 
-0.0322503 -0.0244675 1.52389 -0.032328 -0.0246496 1.52384 -0.0324456 -0.0245073 1.52394 
-0.0318024 -0.0239608 1.52434 -0.0318913 -0.0238755 1.5245 -0.0317249 -0.0240303 1.52417 
-0.0315953 -0.0239252 1.5243 -0.0336029 -0.0244176 1.52388 -0.0335648 -0.0246241 1.52386 
-0.0334234 -0.0244823 1.52393 -0.0337298 -0.0245442 1.5238 -0.033774 -0.0243412 1.52381 
-0.0334649 -0.0242833 1.52397 -0.0338571 -0.024672 1.52374 -0.0339092 -0.0244849 1.52373 
-0.0336945 -0.0247883 1.52379 -0.0340491 -0.0246642 1.52365 -0.033888 -0.029906 1.51889 
-0.0338407 -0.0299389 1.51869 -0.0336657 -0.0298801 1.51885 -0.0339323 -0.0298691 1.51909 
-0.0337155 -0.0298446 1.51906 -0.0340793 -0.0299702 1.51872 -0.0326547 -0.0292793 1.51721 
-0.0326093 -0.0293243 1.51741 -0.0324829 -0.029428 1.518 -0.0325201 -0.0293933 1.5178 
-0.0326449 -0.0295065 1.51793 -0.035693 -0.0299244 1.51701 -0.0358982 -0.0298627 1.51684 
-0.0358021 -0.0299766 1.5172 -0.0354893 -0.0299306 1.51707 -0.0355822 -0.029972 1.51722 
-0.0348109 -0.0294904 1.51599 -0.034689 -0.0293935 1.51585 -0.0349014 -0.0293917 1.51585 
-0.034248 -0.0291298 1.51566 -0.0344752 -0.0291539 1.51563 -0.0341414 -0.0292332 1.5158 
-0.0343647 -0.0292675 1.51577 -0.0372305 -0.0242183 1.5208 -0.0373056 -0.0241492 1.52064 
-0.0371898 -0.0240345 1.52076 -0.0372699 -0.0244117 1.52085 -0.0384358 -0.025395 1.51917 
-0.0384832 -0.0253568 1.51897 -0.0385098 -0.0255717 1.51903 -0.0384645 -0.0255951 1.51921 
-0.0383885 -0.0254369 1.51936 -0.0383595 -0.0252419 1.51932 -0.032701 -0.0230064 1.51579 
-0.0327947 -0.022851 1.51589 -0.0328844 -0.0229393 1.51574 -0.0327893 -0.0230959 1.51564 
-0.0325182 -0.0230706 1.51586 -0.0355128 -0.0207528 1.5201 -0.0356545 -0.0208147 1.52026 
-0.0358383 -0.0209649 1.52082 -0.0358562 -0.0210566 1.52058 -0.0358977 -0.0211602 1.5207 
-0.0358908 -0.0211845 1.52089 -0.0358217 -0.0209907 1.52098 -0.0358077 -0.0209064 1.52055 
-0.0357241 -0.0208509 1.52036 -0.035781 -0.0208859 1.52047 -0.0346474 -0.0215489 1.52205 
-0.0347914 -0.0213802 1.52198 -0.0347005 -0.0217416 1.5221 -0.0344511 -0.0214879 1.52208 
-0.0337115 -0.0206701 1.52196 -0.0335904 -0.0205155 1.52194 -0.033866 -0.0207157 1.52202 
-0.0296128 -0.0242099 1.51891 -0.0296283 -0.0242278 1.51871 -0.0295334 -0.0243467 1.51882 
-0.0296531 -0.0242644 1.51851 -0.0295691 -0.0244243 1.51843 -0.0296871 -0.0243081 1.51832 
-0.0295454 -0.0243753 1.51863 -0.0291933 -0.0252288 1.51933 -0.029255 -0.0252811 1.51951 
-0.0291626 -0.0254295 1.51937 -0.0292425 -0.0250349 1.51928 -0.0291157 -0.025366 1.51917 
-0.0291472 -0.0256284 1.51941 -0.029091 -0.0255693 1.51922 -0.0292399 -0.0257414 1.51961 
-0.029087 -0.0257387 1.51926 -0.0292332 -0.0254996 1.51956 -0.0330485 -0.0212198 1.52165 
-0.0331596 -0.0213212 1.52178 -0.032951 -0.0211218 1.52151 -0.0325009 -0.021392 1.52122 
-0.0325552 -0.0218817 1.52196 -0.0323361 -0.0219217 1.52169 -0.0326629 -0.0217624 1.52184 
-0.0296442 -0.0242683 1.52024 -0.0297385 -0.024119 1.52038 -0.0296849 -0.024324 1.52044 
-0.0295997 -0.0244694 1.52029 -0.0297048 -0.0240421 1.52015 -0.0295717 -0.0244264 1.52009 
-0.0295597 -0.0246684 1.52033 -0.0295069 -0.0248251 1.52017 -0.0295349 -0.0246161 1.52014 
-0.0296397 -0.0245262 1.52049 -0.0295993 -0.024742 1.52053 -0.0295346 -0.0248904 1.52035 
-0.0298486 -0.0240015 1.52052 -0.0299055 -0.0238198 1.52047 -0.0297948 -0.0239366 1.52034 
-0.029922 -0.0240764 1.5207 -0.0297933 -0.0241914 1.52058 -0.0300174 -0.0241683 1.52087 
-0.0298716 -0.0242664 1.52076 -0.0299721 -0.0243554 1.52092 -0.0372228 -0.0247131 1.51463 
-0.0373777 -0.0247981 1.51471 -0.037055 -0.0246396 1.51454 -0.0308877 -0.0253968 1.5163 
-0.0307752 -0.0253976 1.51644 -0.0308756 -0.025558 1.51633 -0.030975 -0.0254933 1.5162 
-0.0308601 -0.0252288 1.51633 -0.0310812 -0.0256025 1.51609 -0.0309752 -0.0256948 1.51623 
-0.0310956 -0.0258075 1.51612 -0.0381276 -0.0252314 1.51564 -0.0380616 -0.0252634 1.51545 
-0.0380975 -0.0250093 1.5157 -0.0381269 -0.0254347 1.5156 -0.0381815 -0.0254047 1.51577 
-0.0381741 -0.0251811 1.51582 -0.0382201 -0.0251486 1.51601 -0.0382344 -0.0253472 1.51596 
-0.0382801 -0.0253134 1.51616 -0.0382589 -0.0251118 1.51621 -0.0381395 -0.0249731 1.51588 
-0.0381101 -0.02561 1.51555 -0.0381097 -0.0258047 1.5156 -0.0380527 -0.0255207 1.51539 
-0.0381658 -0.0256191 1.51573 -0.0384312 -0.0277729 1.51775 -0.0384007 -0.0277217 1.51755 
-0.038465 -0.0278158 1.51796 -0.0385051 -0.0276063 1.51791 -0.0383811 -0.0279619 1.5178 
-0.0384757 -0.0275663 1.51771 -0.0384354 -0.0272934 1.51727 -0.03851 -0.0271008 1.51742 
-0.0384588 -0.0270967 1.51721 -0.0383742 -0.0272392 1.51707 -0.0383449 -0.0274359 1.51711 
-0.03848 -0.0273293 1.51748 -0.0384044 -0.0274788 1.51731 -0.0375273 -0.0282557 1.51628 
-0.0375874 -0.0280827 1.51623 -0.0374438 -0.0281709 1.51612 -0.0375899 -0.0283614 1.51643 
-0.0376953 -0.0281626 1.51642 -0.037668 -0.0284519 1.51658 -0.0377915 -0.028355 1.51669 
-0.0377182 -0.0282995 1.51654 -0.0379143 -0.028223 1.5168 -0.037866 -0.0283987 1.51686 
-0.0378249 -0.02818 1.51661 -0.0379542 -0.0280408 1.51673 -0.0379735 -0.0282729 1.51699 
-0.0372241 -0.0260861 1.51464 -0.0373898 -0.0260201 1.51471 -0.0370463 -0.0261597 1.51458 
-0.0377419 -0.0261122 1.51508 -0.0376473 -0.0260139 1.51493 -0.0377689 -0.0259138 1.51503 
-0.0381794 -0.027536 1.51987 -0.0382324 -0.027328 1.51991 -0.0382466 -0.0275929 1.51969 
-0.038112 -0.0274744 1.52005 -0.0381301 -0.0277279 1.51982 -0.038445 -0.0268165 1.51968 
-0.0385097 -0.0266771 1.51948 -0.0384742 -0.0269169 1.51953 -0.0383764 -0.0267611 1.51987 
-0.0383606 -0.0269789 1.51982 -0.035829 -0.0261409 1.52278 -0.0357993 -0.026358 1.52273 
-0.0358436 -0.0259194 1.5228 -0.0359202 -0.0262419 1.52262 -0.0356932 -0.0260364 1.52293 
-0.0358844 -0.0264431 1.52258 -0.035841 -0.0266467 1.52253 -0.0360047 -0.0263335 1.52246 
-0.035966 -0.0265404 1.52242 -0.0360913 -0.0264287 1.52231 -0.0343655 -0.0256539 1.52366 
-0.0341873 -0.0255791 1.52372 -0.0345439 -0.0257253 1.52359 -0.0343326 -0.0254312 1.52363 
-0.0346007 -0.0249289 1.52343 -0.0347741 -0.0250158 1.52337 -0.0344223 -0.0248409 1.52349 
-0.0344462 -0.0250692 1.52352 -0.035469 -0.0224211 1.52192 -0.0367053 -0.0237845 1.52125 
-0.0366095 -0.0238709 1.5214 -0.0365177 -0.0239613 1.52154 -0.0365582 -0.0241604 1.52159 
-0.0364229 -0.0240484 1.52169 -0.0367902 -0.0256497 1.5218 -0.0367844 -0.0254122 1.52179 
-0.0369095 -0.0255269 1.52168 -0.0366672 -0.0255299 1.52192 -0.0365472 -0.0254063 1.52205 
-0.0366594 -0.0252934 1.52192 -0.0367638 -0.0251784 1.52178 -0.0368965 -0.025297 1.52167 
-0.0370285 -0.0254096 1.52155 -0.034562 -0.0240209 1.52338 -0.0344162 -0.0241544 1.52348 
-0.0345551 -0.0238002 1.52337 -0.0344157 -0.0239248 1.52348 -0.0334009 -0.0284599 1.52268 
-0.0336192 -0.0284358 1.52265 -0.0334772 -0.0285271 1.52252 -0.0333255 -0.0283985 1.52286 
-0.0332732 -0.0285407 1.52253 -0.0335387 -0.0283731 1.52282 -0.0336784 -0.0282784 1.52297 
-0.0334599 -0.0283245 1.523 -0.0336157 -0.0282279 1.52316 -0.0337516 -0.0283352 1.5228 
-0.0343003 -0.0274704 1.5236 -0.0341519 -0.0275548 1.52368 -0.0343449 -0.0272781 1.52364 
-0.034408 -0.0275773 1.52348 -0.0343767 -0.0270685 1.52367 -0.0345284 -0.0269741 1.52359 
-0.0364997 -0.0297094 1.51961 -0.0366911 -0.0296516 1.51956 -0.0365464 -0.0297503 1.51942 
-0.0364472 -0.0296525 1.51981 -0.0366404 -0.0296078 1.51976 -0.0363109 -0.0297449 1.51966 
-0.0367729 -0.0294963 1.51988 -0.0365811 -0.0295507 1.51994 -0.0367085 -0.0294279 1.52007 
-0.0369567 -0.029426 1.51982 -0.0368283 -0.0295438 1.5197 -0.035979 -0.0291925 1.51583 
-0.0360689 -0.0292795 1.51598 -0.0361712 -0.0291479 1.51588 -0.0360772 -0.0290512 1.51573 
-0.0365389 -0.0287674 1.51578 -0.0363555 -0.0288322 1.5157 -0.0364477 -0.028934 1.51586 
-0.0364409 -0.0286671 1.51562 -0.0339739 -0.0284376 1.51515 -0.0341011 -0.0283122 1.51504 
-0.0338913 -0.0282729 1.51507 -0.033768 -0.0283897 1.51518 -0.0314882 -0.0280173 1.51704 
-0.0314278 -0.0278565 1.51695 -0.0313558 -0.0279281 1.51713 -0.0313825 -0.02808 1.51728 
-0.031484 -0.0285397 1.52036 -0.0314608 -0.0285664 1.52014 -0.031327 -0.0284488 1.52027 
-0.0322626 -0.0291705 1.51959 -0.0324174 -0.0292496 1.51967 -0.0323891 -0.0292793 1.51946 
-0.0323012 -0.029147 1.51981 -0.0325088 -0.0293891 1.51932 -0.0326446 -0.0295028 1.51919 
-0.0325489 -0.0293628 1.51954 -0.0326768 -0.0294701 1.5194 -0.0308256 -0.0272832 1.51724 
-0.0309012 -0.0274501 1.51729 -0.0310017 -0.0273973 1.51711 -0.0307433 -0.0271009 1.5172 
-0.0309037 -0.0272082 1.51709 -0.0307508 -0.0273591 1.51741 -0.0303886 -0.02699 1.51756 
-0.0309494 -0.0277361 1.5175 -0.0306191 -0.0277208 1.51799 -0.0307835 -0.0276036 1.5176 
-0.0305395 -0.0275664 1.51792 -0.0304817 -0.0276322 1.5181 -0.0306073 -0.027502 1.51775 
-0.0304021 -0.0274756 1.51803 -0.0305145 -0.0275431 1.52363 -0.0304854 -0.0272877 1.52355 
-0.0304461 -0.0274021 1.52378 -0.0305702 -0.0277372 1.5237 -0.0306128 -0.0276816 1.52351 
-0.0307317 -0.0278198 1.52339 -0.0308199 -0.0279906 1.52348 -0.0306914 -0.0278671 1.52358 
-0.0305091 -0.027129 1.52338 -0.0315854 -0.0221398 1.52274 -0.0315677 -0.0223613 1.52249 
-0.0316616 -0.0222135 1.52259 -0.0313357 -0.0226241 1.52249 -0.0312712 -0.022802 1.5224 
-0.0313941 -0.0226816 1.52229 -0.0314789 -0.0225202 1.52239 -0.0310694 -0.0232692 1.52177 
-0.0311587 -0.02312 1.52191 -0.0311259 -0.0230908 1.52171 -0.0310165 -0.0232224 1.52157 
-0.0310097 -0.0234535 1.52182 -0.0309595 -0.0237385 1.52339 -0.0308398 -0.0236557 1.52373 
-0.0309734 -0.0237597 1.52388 -0.0309896 -0.0237666 1.5232 -0.0309341 -0.0235857 1.52309 
-0.0310731 -0.0239409 1.52312 -0.0310763 -0.0252178 1.52316 -0.0310284 -0.0254068 1.5232 
-0.0309818 -0.0251192 1.52301 -0.0311204 -0.0250158 1.52312 -0.0312337 -0.0251144 1.52326 
-0.030938 -0.0253233 1.52304 -0.0308138 -0.0254513 1.52292 -0.0307379 -0.0253663 1.52276 
-0.0308544 -0.025242 1.52289 -0.0308936 -0.0255195 1.52308 -0.0311266 -0.0254972 1.52334 
-0.031058 -0.025667 1.5234 -0.0309742 -0.0255913 1.52324 -0.0308377 -0.0257026 1.52313 
-0.0309059 -0.0257698 1.5233 -0.0308369 -0.0259434 1.52337 -0.0307665 -0.0261053 1.52343 
-0.0307154 -0.0260557 1.52325 -0.030768 -0.0258909 1.52319 -0.0309839 -0.0258374 1.52347 
-0.0309076 -0.0260017 1.52355 -0.0338577 -0.0266324 1.5241 -0.033718 -0.0265466 1.5242 
-0.0338309 -0.0264229 1.52408 -0.0352865 -0.0284872 1.51511 -0.0353741 -0.0283263 1.51503 
-0.0351589 -0.0283544 1.51501 -0.0355004 -0.02846 1.51514 -0.0351933 -0.0286402 1.5152 
-0.0350269 -0.0282256 1.51492 -0.0352363 -0.0281941 1.51493 -0.0350991 -0.0280632 1.51483 
-0.0352817 -0.0279846 1.52219 -0.0353555 -0.0278105 1.52227 -0.0354525 -0.0279136 1.52212 
-0.0353798 -0.0280784 1.52205 -0.035759 -0.0246865 1.52271 -0.0358115 -0.0244418 1.52258 
-0.0359134 -0.0246373 1.52256 -0.035615 -0.0244544 1.52275 -0.0359887 -0.0245125 1.52245 
-0.0360806 -0.024412 1.52232 -0.0359361 -0.0243155 1.52242 -0.0334203 -0.0222726 1.51653 
-0.0336192 -0.0222571 1.5165 -0.0335731 -0.0222068 1.51667 -0.033268 -0.0223674 1.51637 
-0.0334771 -0.0223399 1.51633 -0.0333557 -0.0222157 1.5167 -0.0377384 -0.0265538 1.52086 
-0.0377463 -0.0263192 1.52084 -0.0378355 -0.0264477 1.52072 -0.0376322 -0.0266744 1.52102 
-0.0376385 -0.0264324 1.521 -0.0377312 -0.0260961 1.52084 -0.037642 -0.02622 1.52098 
-0.0378334 -0.0262285 1.52071 -0.0379346 -0.0263521 1.52058 -0.0339728 -0.0298692 1.51707 
-0.0341681 -0.0299242 1.51722 -0.034017 -0.0298349 1.51687 -0.0337676 -0.0298289 1.51712 
-0.0338077 -0.0298042 1.51691 -0.0336525 -0.0297233 1.51677 -0.0338493 -0.0297626 1.51671 
-0.033695 -0.0296527 1.51655 -0.0336147 -0.0297571 1.51697 -0.0336714 -0.0225452 1.5239 
-0.0337506 -0.0224584 1.52374 -0.0337212 -0.0227382 1.52395 -0.0335927 -0.0226343 1.52405 
-0.0335978 -0.0223678 1.52383 -0.0340813 -0.0297878 1.51669 -0.0339078 -0.0297032 1.51652 
-0.033819 -0.0222028 1.51662 -0.0339676 -0.0221409 1.51682 -0.0337461 -0.0221517 1.51683 
-0.0340775 -0.0221795 1.51665 -0.033785 -0.0222581 1.51643 -0.033678 -0.0223118 1.5163 
-0.0335181 -0.022159 1.51686 -0.0332935 -0.0221655 1.5169 -0.0335383 -0.0223894 1.51617 
-0.0353528 -0.0246531 1.52298 -0.0353136 -0.0244555 1.52295 -0.0354371 -0.0245119 1.52289 
-0.0356237 -0.0239348 1.52256 -0.0357591 -0.0240245 1.52246 -0.035658 -0.0241189 1.5226 
-0.0357907 -0.0242119 1.52251 -0.0358935 -0.0241071 1.52237 -0.0360368 -0.0242104 1.52227 
-0.0354309 -0.0243316 1.52285 -0.0352804 -0.0242578 1.52293 -0.0355978 -0.0278342 1.5148 
-0.0357329 -0.0279673 1.51491 -0.0358575 -0.0280944 1.51502 -0.0359826 -0.0282188 1.51512 
-0.035789 -0.0282573 1.51509 -0.0359123 -0.0283807 1.5152 -0.0357109 -0.0284176 1.51517 
-0.031701 -0.0283952 1.52214 -0.031552 -0.0283272 1.52224 -0.0316832 -0.0283909 1.52238 
-0.0337655 -0.0260071 1.52401 -0.0337945 -0.0262195 1.52405 -0.0309041 -0.0233894 1.52303 
-0.0307909 -0.023256 1.52317 -0.0306722 -0.0231286 1.52328 -0.0307525 -0.0238896 1.52162 
-0.0306382 -0.0240038 1.52148 -0.0308532 -0.0237698 1.52175 -0.0309471 -0.0236348 1.52189 
-0.0309617 -0.0236722 1.52209 -0.0319626 -0.0222213 1.5221 -0.031838 -0.0221418 1.52253 
-0.0319542 -0.0220299 1.52266 -0.0317629 -0.0220742 1.5227 -0.0318808 -0.0221973 1.52236 
-0.0317226 -0.0222835 1.52241 -0.0313069 -0.0228394 1.52219 -0.0314281 -0.0227029 1.52209 
-0.0316279 -0.0224213 1.5223 -0.0315285 -0.0225691 1.52219 -0.0317738 -0.022333 1.52221 
-0.0326958 -0.0253618 1.52404 -0.032587 -0.0252507 1.52398 -0.0327837 -0.0252225 1.524 
-0.0324692 -0.025123 1.5239 -0.0333568 -0.0290741 1.5214 -0.0332041 -0.0289828 1.52155 
-0.0330507 -0.0288864 1.52169 -0.0328352 -0.0288521 1.52165 -0.0308458 -0.027547 1.51746 
-0.0362515 -0.0292409 1.51605 -0.0354164 -0.0295606 1.52046 -0.0368683 -0.0295808 1.51949 
-0.0367244 -0.0296857 1.51935 -0.0371211 -0.0293479 1.51974 -0.0370057 -0.0294701 1.51962 
-0.0365159 -0.0294806 1.52012 -0.0366319 -0.0293506 1.52024 -0.0362487 -0.029686 1.51985 
-0.0363831 -0.0295907 1.51999 -0.0347228 -0.0266767 1.52353 -0.0348597 -0.0268067 1.52344 
-0.0346979 -0.0268885 1.52351 -0.0348268 -0.0270211 1.52341 -0.0349911 -0.0269321 1.52334 
-0.034949 -0.0271494 1.5233 -0.0351073 -0.0270467 1.52322 -0.0333746 -0.0286055 1.52238 
-0.0335516 -0.0285942 1.52237 -0.0334575 -0.0286504 1.52227 -0.0369601 -0.0228396 1.51864 
-0.0370832 -0.0229446 1.51874 -0.0371052 -0.022925 1.51853 -0.0372278 -0.0230315 1.51865 
-0.0341397 -0.0237097 1.52368 -0.0342781 -0.0236039 1.52358 -0.0342726 -0.0238218 1.52357 
-0.0341548 -0.0232701 1.52368 -0.0342623 -0.0231473 1.52355 -0.03428 -0.0233792 1.52358 
-0.0343891 -0.0232636 1.52345 -0.0343625 -0.0230368 1.52341 -0.0344888 -0.0231483 1.52332 
-0.0345194 -0.0233674 1.52334 -0.0345967 -0.0230424 1.52318 -0.034628 -0.0232511 1.52321 
-0.0347412 -0.0231484 1.52307 -0.0344083 -0.0237087 1.52348 -0.0366112 -0.0234076 1.52115 
-0.0367533 -0.0235152 1.52104 -0.0363935 -0.0233843 1.52141 -0.0364736 -0.0233009 1.52125 
-0.0361686 -0.0233649 1.52166 -0.0360342 -0.0232613 1.52177 -0.0349485 -0.0223924 1.52232 
-0.0353187 -0.0223298 1.522 -0.0343027 -0.0252197 1.5236 -0.0342697 -0.0249939 1.52358 
-0.0347431 -0.0260475 1.52353 -0.0347194 -0.0258133 1.52352 -0.034855 -0.0256662 1.52345 
-0.0350147 -0.0255042 1.52336 -0.0349879 -0.0252865 1.52334 -0.0360596 -0.0266373 1.52227 
-0.0359251 -0.026743 1.52238 -0.0375436 -0.0259064 1.5148 -0.0369975 -0.0263591 1.51462 
-0.0370948 -0.0264918 1.5147 -0.0373117 -0.0267129 1.51497 -0.0378604 -0.0279781 1.51652 
-0.0379196 -0.0284491 1.51706 -0.037554 -0.0287981 1.51671 -0.0385567 -0.0268717 1.51759 
-0.0385776 -0.0266574 1.51762 -0.0385365 -0.0271325 1.51763 -0.0385696 -0.0269444 1.51783 
-0.0385151 -0.0269162 1.51733 -0.0385069 -0.0273685 1.51766 -0.0384443 -0.0275247 1.5175 
-0.038358 -0.0276781 1.51735 -0.0385597 -0.0258182 1.5176 -0.0385803 -0.0260708 1.51761 
-0.0385305 -0.0257351 1.51732 -0.0385314 -0.0255476 1.51759 -0.0385426 -0.0252101 1.51827 
-0.038536 -0.025257 1.51798 -0.0384715 -0.0253433 1.51715 -0.0384799 -0.0252533 1.51733 
-0.0385045 -0.0254551 1.51734 -0.0384916 -0.025573 1.51714 -0.0381601 -0.0258602 1.51578 
-0.0382134 -0.0257405 1.51591 -0.0383223 -0.0255247 1.5163 -0.0383182 -0.0252899 1.51636 
-0.0382739 -0.0254907 1.51609 -0.0296526 -0.0248154 1.52072 -0.0295722 -0.0249549 1.52055 
-0.0316289 -0.0219586 1.52046 -0.0316606 -0.0219773 1.52067 -0.0333287 -0.0202934 1.52038 
-0.0332153 -0.0204158 1.52042 -0.0322678 -0.0218638 1.5215 -0.0294541 -0.0244941 1.51876 
-0.0294647 -0.0245374 1.51856 -0.0365079 -0.0255217 1.51426 -0.0366549 -0.0253242 1.51427 
-0.0364043 -0.0252808 1.51425 -0.0367138 -0.0255089 1.51429 -0.0347587 -0.0222041 1.51597 
-0.0373126 -0.0246034 1.5209 -0.0363818 -0.0271762 1.52188 -0.0365129 -0.027301 1.52177 
-0.0366417 -0.0274248 1.52167 -0.0366066 -0.0276277 1.52164 -0.0373614 -0.0286175 1.52046 
-0.0345797 -0.029281 1.51574 -0.034677 -0.0291676 1.51561 -0.0347811 -0.0292878 1.51572 
-0.0350691 -0.0293701 1.51581 -0.0349751 -0.0292862 1.51572 -0.0351732 -0.0292845 1.51572 
-0.0354689 -0.0300113 1.51742 -0.0356925 -0.0300036 1.51735 -0.0354236 -0.0297904 1.51663 
-0.0352071 -0.0297924 1.51663 -0.0356332 -0.0297865 1.51663 -0.0358607 -0.0297876 1.51667 
-0.0357877 -0.0297103 1.51651 -0.0341259 -0.0239346 1.52367 -0.0342467 -0.0247628 1.52356 
-0.0342473 -0.0245241 1.52356 -0.034259 -0.0242779 1.52357 -0.0340907 -0.024399 1.52365 
-0.0333816 -0.0246799 1.52391 -0.0335124 -0.0247963 1.52386 -0.0341097 -0.0241598 1.52366 
-0.0339702 -0.0240399 1.52375 -0.0339423 -0.0242641 1.52374 -0.0315318 -0.0239814 1.52412 
-0.0316604 -0.024084 1.52399 -0.0333898 -0.0228114 1.52434 -0.0332694 -0.0226967 1.52445 
-0.0333702 -0.0226058 1.52431 -0.0336234 -0.0228317 1.52409 -0.033754 -0.0229442 1.52398 
-0.0336366 -0.0230414 1.5241 -0.0335103 -0.0229174 1.52422 -0.0335095 -0.0231322 1.52422 
-0.0332787 -0.0229056 1.52446 -0.0331637 -0.0227931 1.52458 -0.0333965 -0.0230193 1.52433 
-0.0337418 -0.0235807 1.52398 -0.033612 -0.0234525 1.52409 -0.033757 -0.0233642 1.524 
-0.0338861 -0.0234823 1.52389 -0.0339939 -0.0238151 1.52377 -0.0338723 -0.0237004 1.52387 
-0.0340163 -0.0235978 1.52378 -0.0338945 -0.023262 1.5239 -0.0338781 -0.0230439 1.52388 
-0.0340199 -0.0231594 1.52378 -0.0340265 -0.0233784 1.52379 -0.0341509 -0.0234911 1.52369 
-0.0334901 -0.0233472 1.5242 -0.0330671 -0.02464 1.52398 -0.0332355 -0.0245595 1.52397 
-0.0332752 -0.0243454 1.52402 -0.0329276 -0.0237427 1.5244 -0.0330453 -0.023866 1.52428 
-0.0329222 -0.0247427 1.52396 -0.0328527 -0.0245754 1.524 -0.0332658 -0.0218467 1.52247 
-0.0331591 -0.0218992 1.52266 -0.0328951 -0.021901 1.52263 -0.0330434 -0.0219158 1.52289 
-0.0327602 -0.0218987 1.52282 -0.0325232 -0.0219019 1.52279 -0.0332538 -0.0219651 1.52351 
-0.0332516 -0.0219612 1.52306 -0.033433 -0.0220322 1.5232 -0.033254 -0.0219668 1.52329 
-0.0333002 -0.0219436 1.52283 -0.0335907 -0.0219238 1.52261 -0.0333848 -0.0219091 1.52264 
-0.0334767 -0.0218435 1.52246 -0.0342174 -0.0300328 1.5185 -0.0342089 -0.0300596 1.51822 
-0.0340198 -0.0300239 1.51831 -0.0340027 -0.0299943 1.51853 -0.0324471 -0.0292395 1.51749 
-0.0322287 -0.0289653 1.51727 -0.0321196 -0.028817 1.51718 -0.0330636 -0.0297607 1.51873 
-0.0330113 -0.02975 1.51853 -0.0332941 -0.0298199 1.5188 -0.0334996 -0.0298663 1.51878 
-0.032815 -0.0295719 1.51787 -0.0329629 -0.0296715 1.51799 -0.0330985 -0.0297574 1.51814 
-0.0321836 -0.0284384 1.51657 -0.0336924 -0.0282251 1.5151 -0.0335756 -0.028338 1.51522 
-0.0342416 -0.0300532 1.51798 -0.0345122 -0.0300639 1.51784 -0.0342628 -0.030031 1.51774 
-0.0354464 -0.0300683 1.51782 -0.0348089 -0.0300742 1.51785 -0.0346801 -0.0300243 1.51758 
-0.0346641 -0.0299584 1.51731 -0.034936 -0.0299977 1.51744 -0.0352053 -0.0300717 1.51782 
-0.0350182 -0.0300527 1.51768 -0.0353061 -0.0300443 1.51762 -0.0326462 -0.0289966 1.51674 
-0.0325194 -0.0287953 1.51662 -0.0334834 -0.0289765 1.51586 -0.033578 -0.029108 1.51593 
-0.0351841 -0.0300084 1.51744 -0.0360853 -0.030003 1.5174 -0.0361643 -0.0300062 1.51757 
-0.0378473 -0.0276742 1.52043 -0.0377338 -0.0277721 1.52058 -0.0376228 -0.0278872 1.52071 
-0.0364108 -0.0269713 1.5219 -0.0374935 -0.0269032 1.52118 -0.0374085 -0.0267962 1.52126 
-0.0373109 -0.0266914 1.52134 -0.0366957 -0.0279476 1.52149 -0.0368215 -0.0280608 1.52138 
-0.0373615 -0.0281066 1.52094 -0.0367768 -0.0275479 1.52157 -0.0369118 -0.027675 1.52146 
-0.036872 -0.0278759 1.52143 -0.0367402 -0.0277577 1.52154 -0.0372702 -0.0280112 1.52109 
-0.0374375 -0.0247241 1.52077 -0.0377281 -0.0244428 1.52011 -0.0380764 -0.0248149 1.51974 
-0.038185 -0.024953 1.51961 -0.0379571 -0.0246839 1.51987 -0.0378402 -0.0245627 1.51999 
-0.0378076 -0.0253189 1.52051 -0.0376665 -0.0252996 1.52071 -0.0377031 -0.0251314 1.52057 
-0.037789 -0.025087 1.52041 -0.0378987 -0.0252113 1.52031 -0.0379456 -0.0254084 1.52034 
-0.0380244 -0.02534 1.52018 -0.0380651 -0.0255367 1.52021 -0.038284 -0.0260239 1.51998 
-0.0381934 -0.0258903 1.52012 -0.0336285 -0.0239495 1.51457 -0.0335086 -0.0238244 1.51471 
-0.0333946 -0.0237098 1.51484 -0.033171 -0.0234747 1.51509 -0.0332836 -0.0235947 1.51496 
-0.0339124 -0.0232596 1.51484 -0.0340263 -0.0233736 1.51472 -0.0341446 -0.0234949 1.51461 
-0.0361268 -0.0224116 1.51711 -0.0360757 -0.0224232 1.51687 -0.0354248 -0.0224715 1.51522 
-0.0355205 -0.0225578 1.51512 -0.0355906 -0.0224624 1.51526 -0.0361048 -0.0224463 1.51578 
-0.0354175 -0.0222288 1.5159 -0.0351991 -0.0222029 1.51597 -0.0362102 -0.0224842 1.51649 
-0.0360931 -0.02244 1.51664 -0.0353788 -0.0222133 1.51612 -0.0351916 -0.0221938 1.51617 
-0.0355161 -0.0222368 1.51627 -0.0353089 -0.0222043 1.51637 -0.0350902 -0.0221826 1.51631 
-0.0361346 -0.0224506 1.516 -0.036262 -0.0225272 1.51585 -0.0361627 -0.0224611 1.51626 
-0.0363001 -0.0225377 1.51608 -0.0364216 -0.0226215 1.51593 -0.0353348 -0.0222106 1.51663 
-0.0354675 -0.0222385 1.51681 -0.0361731 -0.0223988 1.51736 -0.036197 -0.0223934 1.5176 
-0.0354399 -0.0221645 1.51733 -0.0353863 -0.0221883 1.51708 -0.0350123 -0.022917 1.51477 
-0.0349042 -0.0228042 1.51489 -0.0351129 -0.0227879 1.51487 -0.0350096 -0.0226777 1.515 
-0.03522 -0.0226656 1.51499 -0.0353368 -0.0225527 1.51511 -0.035427 -0.022664 1.51499 
-0.0350279 -0.0224549 1.51527 -0.0349048 -0.0225715 1.51514 -0.0351249 -0.0225558 1.51512 
-0.0352484 -0.0224524 1.51524 -0.0335954 -0.022928 1.51526 -0.0338788 -0.0227319 1.51531 
-0.0342649 -0.0236248 1.5145 -0.0344146 -0.023765 1.51438 -0.0314707 -0.0226956 1.51746 
-0.0315101 -0.0225083 1.51797 -0.0313749 -0.0226124 1.51784 -0.0316742 -0.0224392 1.51789 
-0.031644 -0.0224163 1.51809 -0.0316166 -0.0223959 1.5183 -0.0317779 -0.0223249 1.51823 
-0.0319734 -0.0224908 1.51702 -0.0322512 -0.022288 1.51727 -0.032106 -0.022379 1.51714 
-0.0310355 -0.023493 1.51699 -0.0311055 -0.0233282 1.51708 -0.0312228 -0.0232182 1.51698 
-0.0310495 -0.0232774 1.51727 -0.0309853 -0.0232204 1.51745 -0.0313027 -0.0227863 1.51753 
-0.0310587 -0.0230515 1.51752 -0.0315129 -0.0235314 1.51632 -0.0316712 -0.0234332 1.51623 
-0.0314886 -0.0230107 1.51679 -0.031642 -0.0229137 1.5167 -0.0313771 -0.0236061 1.51641 
-0.0311492 -0.0233806 1.5169 -0.0312138 -0.0234194 1.51674 -0.032253 -0.0230382 1.51607 
-0.0319841 -0.0230036 1.51629 -0.032339 -0.0231338 1.51592 -0.0322643 -0.0227881 1.51632 
-0.0323651 -0.0226361 1.51641 -0.0322873 -0.0225388 1.51657 -0.0322113 -0.022458 1.51675 
-0.032055 -0.0238177 1.51563 -0.031865 -0.0236221 1.51592 -0.0319603 -0.0237189 1.51577 
-0.0322566 -0.0232913 1.51583 -0.0321828 -0.02346 1.51575 -0.0321172 -0.0236355 1.51569 
-0.0328046 -0.0240616 1.51496 -0.0326974 -0.0239285 1.51508 -0.0323629 -0.0221895 1.51761 
-0.0318904 -0.0222085 1.51857 -0.0318659 -0.0221846 1.51878 -0.0319156 -0.0222304 1.51836 
-0.0317525 -0.0223049 1.51844 -0.0326214 -0.0219996 1.51811 -0.0323259 -0.0221633 1.51782 
-0.0324757 -0.0220917 1.51797 -0.0332787 -0.021697 1.51827 -0.0334292 -0.0216206 1.51839 
-0.0340424 -0.0216595 1.51825 -0.0338829 -0.0215977 1.5184 -0.0342507 -0.0216866 1.51828 
-0.0340011 -0.0217148 1.51805 -0.0337804 -0.0218158 1.51779 -0.0339591 -0.0217815 1.51785 
-0.0345511 -0.0216747 1.51873 -0.034509 -0.0217088 1.51853 -0.0344178 -0.0215655 1.51886 
-0.0344669 -0.0217294 1.51833 -0.0351724 -0.0219758 1.51811 -0.0346566 -0.0219244 1.51758 
-0.0349565 -0.0221503 1.51681 -0.0348508 -0.0221572 1.51663 -0.0351939 -0.0221766 1.51687 
-0.035103 -0.0221793 1.51659 -0.034836 -0.0221014 1.51699 -0.0350029 -0.0221856 1.51609 
-0.036589 -0.0259068 1.51433 -0.0363843 -0.0259606 1.51429 -0.0366458 -0.0256896 1.5143 
-0.0364366 -0.0257432 1.51427 -0.0362544 -0.0258105 1.51425 -0.0362282 -0.0255814 1.51425 
-0.0361345 -0.0252413 1.51425 -0.0360432 -0.0257497 1.51425 -0.0359088 -0.0254613 1.51425 
-0.035648 -0.0255137 1.51425 -0.035777 -0.0257356 1.51425 -0.0356591 -0.0252432 1.51425 
-0.0357866 -0.0249885 1.51425 -0.0355324 -0.0249743 1.51425 -0.0359065 -0.0251907 1.51425 
-0.0360297 -0.0249895 1.51425 -0.0365865 -0.0250759 1.51426 -0.0363302 -0.0249767 1.51425 
-0.0363732 -0.0246733 1.51425 -0.036122 -0.0247554 1.51425 -0.0365652 -0.0248128 1.51427 
-0.0365703 -0.0245738 1.5143 -0.0354167 -0.0265109 1.51429 -0.035188 -0.0263934 1.51425 
-0.0354091 -0.0262746 1.51425 -0.0354181 -0.0260168 1.51425 -0.0351822 -0.0261298 1.51425 
-0.0356458 -0.0264072 1.51428 -0.0359223 -0.0264104 1.51431 -0.0359189 -0.0259748 1.51425 
-0.0358039 -0.0261928 1.51426 -0.0355903 -0.0261694 1.51425 -0.0356619 -0.0259671 1.51425 
-0.0356422 -0.0271577 1.51455 -0.0358692 -0.0271234 1.51458 -0.036162 -0.0259806 1.51426 
-0.0360845 -0.0262299 1.51428 -0.036111 -0.026434 1.51435 -0.0363824 -0.0267 1.51452 
-0.0362353 -0.0265507 1.51443 -0.0363846 -0.0276596 1.51496 -0.036254 -0.0275425 1.51485 
-0.036134 -0.0274133 1.51475 -0.0360004 -0.0272718 1.51466 -0.0367599 -0.0270941 1.51482 
-0.0365111 -0.0268397 1.51461 -0.0366378 -0.026968 1.51471 -0.0349706 -0.0207363 1.5197 
-0.0348461 -0.0208659 1.5196 -0.0351032 -0.0206038 1.51982 -0.0349335 -0.0205488 1.51974 
-0.0347543 -0.0219285 1.52215 -0.0339219 -0.0220592 1.52272 -0.0340384 -0.0221676 1.52285 
-0.0342466 -0.0214452 1.5221 -0.0338831 -0.021872 1.52244 -0.034695 -0.0229387 1.52302 
-0.0340076 -0.021385 1.52209 -0.0338762 -0.0216097 1.52219 -0.0337989 -0.0219543 1.52259 
-0.0336788 -0.0218538 1.52245 -0.0297292 -0.0255223 1.5176 -0.0297352 -0.0253038 1.5176 
-0.0296159 -0.025423 1.51773 -0.0296242 -0.0256246 1.51772 -0.0295282 -0.0255351 1.51784 
-0.0298513 -0.0254076 1.51748 -0.0298448 -0.0256218 1.51749 -0.0299651 -0.0255127 1.51736 
-0.0298648 -0.0251903 1.51749 -0.0299768 -0.0252953 1.51737 -0.0296248 -0.0252123 1.51774 
-0.0295119 -0.0253359 1.51787 -0.0295285 -0.0251245 1.51789 -0.029646 -0.0250019 1.51776 
-0.029753 -0.0250916 1.51762 -0.0297814 -0.0248843 1.51765 -0.0298924 -0.0249819 1.51751 
-0.029532 -0.0257278 1.51785 -0.029449 -0.0256301 1.51796 -0.0299604 -0.0257322 1.51737 
-0.0298466 -0.0258366 1.5175 -0.0300821 -0.0258426 1.51726 -0.0303111 -0.0237139 1.51795 
-0.0297395 -0.0243595 1.51812 -0.0298827 -0.0242476 1.51801 -0.0293905 -0.0247078 1.51851 
-0.0293063 -0.0247619 1.51883 -0.0292899 -0.0248071 1.51902 -0.0292989 -0.024823 1.51866 
-0.0293733 -0.02465 1.51871 -0.0296083 -0.0244756 1.51824 -0.0293097 -0.0255544 1.51973 
-0.0293317 -0.0257282 1.5198 -0.0293797 -0.0247062 1.51937 -0.0292981 -0.0248492 1.51922 
-0.0291798 -0.0263214 1.51871 -0.0291184 -0.0262154 1.51882 -0.0291508 -0.0263594 1.5189 
-0.0292287 -0.0264987 1.51878 -0.02906 -0.025581 1.51884 -0.029069 -0.025509 1.51906 
-0.0290458 -0.0257298 1.51908 -0.0290694 -0.0260519 1.51883 -0.0290437 -0.0258247 1.51885 
-0.0290449 -0.0259744 1.51901 -0.0328379 -0.0212253 1.51978 -0.0333297 -0.0212467 1.52184 
-0.0334556 -0.0213625 1.52195 -0.0332128 -0.0211352 1.52173 -0.0330983 -0.0210316 1.5216 
-0.0335659 -0.0214931 1.52207 -0.0337677 -0.0214596 1.52209 -0.0336727 -0.0216222 1.52219 
-0.0326712 -0.0209954 1.52069 -0.0327536 -0.0208894 1.5208 -0.0326621 -0.0210262 1.52053 
-0.0327621 -0.0208955 1.52061 -0.0334738 -0.0216463 1.52217 -0.0335741 -0.0217493 1.52231 
-0.0325938 -0.0219036 1.52216 -0.0322898 -0.0219116 1.5228 -0.0326474 -0.0219205 1.52254 
-0.0326657 -0.0219065 1.52232 -0.0333733 -0.0217603 1.52231 -0.0321755 -0.0220054 1.52161 
-0.0328633 -0.0207331 1.5209 -0.032964 -0.0205464 1.52096 -0.0330458 -0.0203703 1.52114 
-0.0340736 -0.0207757 1.52207 -0.0332225 -0.0202991 1.52054 -0.0330732 -0.0203321 1.5209 
-0.0329338 -0.0206187 1.5208 -0.0329618 -0.0206275 1.52065 -0.0334539 -0.0207325 1.51984 
-0.0329592 -0.0210821 1.51988 -0.0319497 -0.022249 1.52185 -0.0320713 -0.0221368 1.52172 
-0.0320158 -0.0220946 1.52152 -0.0318359 -0.0221853 1.52143 -0.0319423 -0.0220473 1.52133 
-0.0319167 -0.022228 1.52164 -0.0318065 -0.0223461 1.52175 -0.0315471 -0.0225883 1.52198 
-0.0316676 -0.0224616 1.52209 -0.031676 -0.0224672 1.52186 -0.0318085 -0.0223524 1.52198 
-0.0314263 -0.0227027 1.52186 -0.0313089 -0.0228098 1.52175 -0.0315381 -0.0225643 1.52175 
-0.0312659 -0.0225353 1.52124 -0.0309499 -0.0231654 1.52138 -0.0308329 -0.0232719 1.52127 
-0.0311894 -0.0229254 1.52163 -0.0310698 -0.0230472 1.52151 -0.032065 -0.0218938 1.51946 
-0.0316346 -0.0219568 1.52024 -0.031771 -0.0218607 1.52035 -0.0321669 -0.0215255 1.52048 
-0.0320424 -0.0216346 1.52037 -0.0319085 -0.0217583 1.52025 -0.0317879 -0.021876 1.52013 
-0.0305934 -0.0230529 1.51871 -0.0307197 -0.0229504 1.5186 -0.0307153 -0.022936 1.51881 
-0.0305823 -0.0230397 1.51892 -0.0304657 -0.0231607 1.51881 -0.030481 -0.0231805 1.5186 
-0.0306086 -0.023069 1.5185 -0.030376 -0.0233173 1.51851 -0.0302586 -0.0234321 1.51863 
-0.0302338 -0.0234112 1.51884 -0.0302116 -0.0233883 1.51905 -0.0301174 -0.0235301 1.51895 
-0.0303374 -0.0232713 1.51893 -0.0303563 -0.023294 1.51872 -0.0298277 -0.0237196 1.51987 
-0.0299293 -0.0235325 1.51998 -0.0298394 -0.0237109 1.5201 -0.0297596 -0.0238677 1.52 
-0.029751 -0.0238742 1.51977 -0.0301791 -0.0233762 1.51925 -0.0301501 -0.0233356 1.51947 
-0.0300645 -0.0234838 1.51938 -0.029762 -0.0238784 1.51954 -0.0298659 -0.023747 1.51942 
-0.0300919 -0.0235092 1.51917 -0.0299783 -0.0236253 1.51929 -0.0300007 -0.0236508 1.51908 
-0.0307098 -0.0229214 1.51903 -0.0308498 -0.0228202 1.51892 -0.0300825 -0.0235277 1.52054 
-0.0302087 -0.0234116 1.52065 -0.0304838 -0.0231997 1.52087 -0.0305927 -0.0232861 1.52101 
-0.0303453 -0.0233036 1.52076 -0.0306978 -0.0233712 1.52116 -0.0314388 -0.0222282 1.51977 
-0.0313209 -0.0223437 1.51966 -0.0311997 -0.02246 1.51953 -0.0310716 -0.0225741 1.51941 
-0.0311585 -0.0224277 1.51973 -0.0312769 -0.0223031 1.51986 -0.0311079 -0.0223779 1.51993 
-0.0309966 -0.0224959 1.51983 -0.0306453 -0.022871 1.51947 -0.0306849 -0.0229032 1.51925 
-0.0307977 -0.0227792 1.51937 -0.030831 -0.0228054 1.51915 -0.0309507 -0.0226877 1.51928 
-0.0309829 -0.0227067 1.51903 -0.0315611 -0.0221044 1.5199 -0.0304489 -0.0236165 1.51784 
-0.0295189 -0.0245786 1.51999 -0.0293202 -0.0253417 1.51969 -0.029395 -0.0252078 1.51985 
-0.0295236 -0.0251096 1.52038 -0.0297719 -0.0246689 1.52086 -0.0299228 -0.0245492 1.52097 
-0.0297862 -0.0238461 1.52018 -0.0297708 -0.0253568 1.52114 -0.0295393 -0.0255762 1.52045 
-0.029526 -0.0253276 1.52042 -0.029863 -0.0237458 1.5203 -0.0294775 -0.0246289 1.51979 
-0.0294623 -0.0245516 1.51954 -0.0298759 -0.0252301 1.52126 -0.0300822 -0.0244463 1.52106 
-0.0303838 -0.024246 1.52125 -0.0305166 -0.0241299 1.52136 -0.0305895 -0.02419 1.52154 
-0.0300048 -0.0251104 1.52137 -0.0300891 -0.0251857 1.52152 -0.0359797 -0.0245175 1.51425 
-0.0362071 -0.0245433 1.51425 -0.0359006 -0.024785 1.51425 -0.0356756 -0.0247937 1.51425 
-0.0357047 -0.0243705 1.51425 -0.0359561 -0.024243 1.51425 -0.0357643 -0.0246167 1.51425 
-0.035562 -0.0245746 1.51425 -0.0354816 -0.0247782 1.51425 -0.0363949 -0.0244104 1.51427 
-0.0369293 -0.0240471 1.51466 -0.0367498 -0.0246797 1.51434 -0.0376068 -0.0243359 1.51521 
-0.0374721 -0.0242188 1.51511 -0.0374372 -0.0237728 1.51563 -0.0375583 -0.0238835 1.51575 
-0.0377334 -0.0244535 1.51532 -0.0378704 -0.0246192 1.51544 -0.0377971 -0.024128 1.516 
-0.0376801 -0.024006 1.51587 -0.0367274 -0.0244767 1.51439 -0.0368863 -0.0245556 1.51446 
-0.0370165 -0.0244274 1.51458 -0.036585 -0.0243885 1.51434 -0.03617 -0.024342 1.51425 
-0.0297416 -0.0259367 1.51764 -0.0300986 -0.026058 1.51728 -0.0297305 -0.0257303 1.51761 
-0.0307657 -0.0256434 1.51648 -0.0306485 -0.0255137 1.51661 -0.0306616 -0.0257478 1.51662 
-0.0304368 -0.0257422 1.51688 -0.0303255 -0.0258482 1.51701 -0.0304578 -0.0259588 1.5169 
-0.0305623 -0.025855 1.51677 -0.0305411 -0.0256309 1.51675 -0.030213 -0.025953 1.51714 
-0.0303516 -0.0260591 1.51703 -0.0300894 -0.0254039 1.51725 -0.0300809 -0.0256248 1.51725 
-0.0302003 -0.0257375 1.51713 -0.0302017 -0.0255156 1.51712 -0.0303169 -0.025629 1.517 
-0.0304297 -0.025516 1.51687 -0.0305389 -0.0254022 1.51674 -0.030321 -0.0254042 1.517 
-0.030649 -0.0252834 1.5166 -0.0305452 -0.0251715 1.51675 -0.0304346 -0.0252896 1.51688 
-0.0304488 -0.025064 1.51689 -0.0301147 -0.0251825 1.51725 -0.030241 -0.0250724 1.51715 
-0.0302675 -0.0248697 1.51717 -0.0303579 -0.0249608 1.51704 -0.0302147 -0.0252925 1.51713 
-0.0303327 -0.0251801 1.51702 -0.0351888 -0.0258497 1.51425 -0.0354723 -0.0257201 1.51425 
-0.0354153 -0.025409 1.51425 -0.0351878 -0.0255554 1.51425 -0.034937 -0.0256938 1.51425 
-0.0349385 -0.0254047 1.51425 -0.0353484 -0.0251396 1.51425 -0.0352841 -0.0248865 1.51425 
-0.035158 -0.0250556 1.51425 -0.0351407 -0.0252667 1.51425 -0.0349171 -0.0250881 1.51425 
-0.0319908 -0.0220772 1.51891 -0.0321194 -0.0219614 1.51904 -0.0322427 -0.0218479 1.51917 
-0.0323665 -0.0217363 1.51928 -0.0324936 -0.0216199 1.51938 -0.0330715 -0.0214758 1.51902 
-0.0329328 -0.0215771 1.51889 -0.0360408 -0.022315 1.51777 -0.0358726 -0.0222361 1.51793 
-0.0362392 -0.0224024 1.51786 -0.0360528 -0.0223054 1.51801 -0.036211 -0.0223795 1.51814 
-0.0360588 -0.0222875 1.5187 -0.0359313 -0.0222265 1.51859 -0.0342863 -0.0214489 1.51899 
-0.034372 -0.0213584 1.51916 -0.0344752 -0.0212521 1.5193 -0.0340111 -0.0209072 1.51947 
-0.0345956 -0.0211231 1.51941 -0.0338014 -0.0212085 1.51923 -0.033567 -0.0212351 1.51924 
-0.0334743 -0.0211362 1.51941 -0.0337995 -0.0209517 1.51948 -0.0339175 -0.0210602 1.51937 
-0.0336954 -0.0210993 1.51937 -0.0347194 -0.0209985 1.51951 -0.0350681 -0.0218699 1.51869 
-0.0352191 -0.0219476 1.51854 -0.034924 -0.0217789 1.51883 -0.0356152 -0.022024 1.51909 
-0.0354923 -0.0219001 1.51921 -0.0353912 -0.021768 1.51933 -0.0352988 -0.0216054 1.51944 
-0.0363559 -0.0226568 1.51551 -0.0364654 -0.0227933 1.5154 -0.0365656 -0.0229417 1.51529 
-0.036499 -0.0230082 1.51511 -0.0364174 -0.0230904 1.51493 -0.0365001 -0.0232564 1.51485 
-0.0357268 -0.023063 1.51466 -0.0352348 -0.0231684 1.51456 -0.0353275 -0.0232781 1.51448 
-0.035418 -0.0231724 1.51456 -0.0353208 -0.0230365 1.51465 -0.0356288 -0.022917 1.51477 
-0.0355263 -0.0227873 1.51488 -0.0355248 -0.023045 1.51465 -0.0354218 -0.0229068 1.51476 
-0.0344498 -0.0247958 1.51425 -0.0345642 -0.0245739 1.51425 -0.0342751 -0.0245322 1.51425 
-0.0341823 -0.024785 1.51425 -0.0344252 -0.0243334 1.51425 -0.034222 -0.0243039 1.51425 
-0.0347127 -0.0243424 1.51425 -0.0350493 -0.0248038 1.51425 -0.0348107 -0.0246019 1.51425 
-0.034729 -0.0248162 1.51425 -0.0357693 -0.0240816 1.51425 -0.0359725 -0.0240424 1.51425 
-0.0351432 -0.0238011 1.51426 -0.0353619 -0.0238455 1.51425 -0.0345298 -0.0241424 1.51425 
-0.0347608 -0.024091 1.51425 -0.0345801 -0.0239228 1.51428 -0.0347804 -0.0238787 1.51427 
-0.0349063 -0.0239996 1.51425 -0.0349711 -0.0238375 1.51427 -0.0349549 -0.0242058 1.51425 
-0.0352936 -0.0246099 1.51425 -0.0350189 -0.0244461 1.51425 -0.0352111 -0.0243077 1.51425 
-0.0351368 -0.0240169 1.51425 -0.0354446 -0.0244051 1.51425 -0.0354666 -0.0241194 1.51425 
-0.0356316 -0.0238319 1.51425 -0.0358947 -0.0238727 1.51426 -0.0352146 -0.0229058 1.51476 
-0.0353185 -0.0227805 1.51487 -0.0307307 -0.0238863 1.51715 -0.0308535 -0.0237738 1.51703 
-0.030986 -0.0236402 1.5169 -0.0306553 -0.0250475 1.51662 -0.030562 -0.0249467 1.51677 
-0.0306773 -0.0248254 1.51665 -0.0307929 -0.0247124 1.51653 -0.0307099 -0.0246108 1.51668 
-0.0304741 -0.0248444 1.51692 -0.0305896 -0.0247268 1.5168 -0.0306306 -0.0245204 1.51683 
-0.0305048 -0.024637 1.51695 -0.0303921 -0.0247646 1.51705 -0.0310128 -0.024693 1.51627 
-0.0311453 -0.024586 1.51616 -0.0311806 -0.0243968 1.5162 -0.0312834 -0.0244776 1.51606 
-0.0313854 -0.0245611 1.51592 -0.0312545 -0.0246702 1.51602 -0.0307469 -0.0251426 1.51649 
-0.0308866 -0.0248076 1.51638 -0.0309865 -0.0248983 1.51624 -0.0307681 -0.0249256 1.5165 
-0.030863 -0.0250187 1.51636 -0.0319687 -0.0244754 1.51534 -0.0321284 -0.0243798 1.51525 
-0.0318227 -0.0245633 1.51546 -0.0317407 -0.0244465 1.51559 -0.0335234 -0.0251022 1.51428 
-0.0334273 -0.0252916 1.5143 -0.0340447 -0.0246031 1.51425 -0.0346161 -0.0250469 1.51425 
-0.0336405 -0.0253178 1.51425 -0.0337494 -0.0250843 1.51425 -0.0335965 -0.0248928 1.51429 
-0.0337967 -0.0248473 1.51426 -0.0339403 -0.0253472 1.51425 -0.0329226 -0.0241889 1.51484 
-0.0331704 -0.024455 1.51461 -0.0333086 -0.0245898 1.51451 -0.0330514 -0.0243217 1.51472 
-0.0322367 -0.0245016 1.51512 -0.0323598 -0.0246214 1.51501 -0.0326187 -0.0248655 1.51478 
-0.0334437 -0.0247299 1.5144 -0.0340477 -0.0243864 1.51426 -0.0338957 -0.0242131 1.51433 
-0.0337586 -0.024073 1.51445 -0.0370895 -0.0241212 1.51475 -0.0370345 -0.0239402 1.5148 
-0.0371876 -0.0240223 1.51489 -0.0373331 -0.0241168 1.515 -0.037213 -0.0235116 1.5156 
-0.0373075 -0.023662 1.51552 -0.0372542 -0.02347 1.51581 -0.0371176 -0.0233613 1.51569 
-0.0377126 -0.023965 1.51607 -0.037632 -0.0238096 1.51616 -0.0373916 -0.0235841 1.51593 
-0.0375115 -0.0236913 1.51604 -0.0374749 -0.0237296 1.51583 -0.0375958 -0.0238422 1.51595 
-0.0366145 -0.022894 1.51549 -0.0369869 -0.0232541 1.51559 -0.036756 -0.0229992 1.51558 
-0.0368531 -0.0231465 1.51548 -0.0362335 -0.0237729 1.51439 -0.0364727 -0.0235329 1.51464 
-0.0363578 -0.0236493 1.51452 -0.0365793 -0.0234276 1.51478 -0.036509 -0.0227532 1.5156 
-0.0363953 -0.0226266 1.51572 -0.0362327 -0.0225372 1.51564 -0.0365432 -0.022725 1.5158 
-0.0371018 -0.022902 1.51762 -0.0370872 -0.0229141 1.5174 -0.037238 -0.0230042 1.51749 
-0.0368001 -0.0227275 1.51745 -0.0369532 -0.0228153 1.51753 -0.0370731 -0.0229304 1.51719 
-0.0373165 -0.0231701 1.51696 -0.0371997 -0.0230464 1.51707 -0.0373495 -0.0231463 1.51716 
-0.0374534 -0.0232714 1.51705 -0.0368176 -0.0227253 1.51767 -0.0369648 -0.0228087 1.51776 
-0.0368194 -0.0227204 1.5179 -0.0379699 -0.0252849 1.51526 -0.0380494 -0.0248155 1.51574 
-0.0379671 -0.0246722 1.51563 -0.037909 -0.0242593 1.51612 -0.0380115 -0.0243966 1.51625 
-0.037582 -0.027414 1.51574 -0.0383082 -0.0276249 1.51715 -0.0382407 -0.0275804 1.51697 
-0.0382788 -0.0273826 1.51694 -0.0381651 -0.0275178 1.51679 -0.0373522 -0.0281021 1.51597 
-0.0369941 -0.0279991 1.51556 -0.0374959 -0.0280077 1.51606 -0.0381214 -0.0277122 1.51683 
-0.0380479 -0.0276492 1.51665 -0.0380948 -0.0274492 1.51661 -0.0379994 -0.027849 1.51669 
-0.0367244 -0.0260589 1.51442 -0.0368628 -0.0262091 1.51452 -0.0380084 -0.0264129 1.51576 
-0.0380559 -0.0262068 1.51571 -0.037901 -0.0265424 1.51563 -0.0374548 -0.027036 1.51531 
-0.0374973 -0.0268629 1.51525 -0.0375974 -0.0266891 1.51526 -0.0374136 -0.0267781 1.5151 
-0.0375088 -0.0273372 1.51559 -0.0378316 -0.0252891 1.51505 -0.0379304 -0.025489 1.51518 
-0.037812 -0.0255257 1.51502 -0.0377043 -0.0254032 1.5149 -0.0375221 -0.0248987 1.51481 
-0.0376487 -0.0250038 1.51491 -0.0377628 -0.0251054 1.51501 -0.0375548 -0.0251078 1.51479 
-0.0376855 -0.0252131 1.5149 -0.0375784 -0.0253016 1.51479 -0.0375864 -0.025501 1.51478 
-0.0376922 -0.0256169 1.51489 -0.0375677 -0.0257042 1.51477 -0.0374719 -0.0253973 1.5147 
-0.0377819 -0.0257263 1.515 -0.0376733 -0.0258147 1.51489 -0.0378806 -0.0256467 1.51512 
-0.0370935 -0.0273673 1.51517 -0.0374192 -0.0275234 1.51561 -0.0366226 -0.0278934 1.5152 
-0.0326392 -0.0288172 1.52161 -0.0325076 -0.0287195 1.52175 -0.0335873 -0.0290863 1.52143 
-0.0377228 -0.0287434 1.51962 -0.0378386 -0.0286252 1.5195 -0.0375949 -0.028858 1.51974 
-0.0374588 -0.0289634 1.51984 -0.037499 -0.0285142 1.52036 -0.0376223 -0.0284014 1.52025 
-0.0377367 -0.0282741 1.52013 -0.0385785 -0.0265014 1.51754 -0.0385989 -0.026292 1.51769 
-0.0386004 -0.0268484 1.51816 -0.0385522 -0.0271769 1.51783 -0.0385804 -0.0269953 1.51801 
-0.0385494 -0.0255164 1.51882 -0.0385315 -0.0257741 1.51906 -0.038514 -0.0259728 1.51925 
-0.038476 -0.0257573 1.51927 -0.0384118 -0.0256326 1.51941 -0.0383467 -0.0254932 1.51954 
-0.0385703 -0.025727 1.51885 -0.0385997 -0.025849 1.51873 -0.0385199 -0.0261871 1.51933 
-0.0385368 -0.026409 1.51932 -0.0385556 -0.0266776 1.51924 -0.0385227 -0.0269018 1.51934 
-0.0385164 -0.0271114 1.51925 -0.0385608 -0.0269023 1.51908 -0.0385736 -0.0270163 1.51883 
-0.0385654 -0.0272262 1.51879 -0.038545 -0.0271621 1.51902 -0.038571 -0.0272068 1.51805 
-0.0385567 -0.0274297 1.51809 -0.0385667 -0.0274772 1.51832 -0.0381969 -0.0277874 1.51963 
-0.0383135 -0.0276566 1.5195 -0.0378492 -0.0281513 1.52001 -0.0379484 -0.0274956 1.52035 
-0.038045 -0.0274031 1.52022 -0.0380811 -0.0279155 1.51976 -0.0379664 -0.0280317 1.51988 
-0.0379656 -0.0285005 1.51938 -0.0380878 -0.0283868 1.51926 -0.0380241 -0.0283237 1.51719 
-0.0381013 -0.0284039 1.51759 -0.0380623 -0.0283674 1.51738 -0.0368897 -0.0245722 1.52142 
-0.0367427 -0.024458 1.52152 -0.0370242 -0.0246694 1.52132 -0.0360197 -0.0268356 1.52223 
-0.0361338 -0.0269411 1.5221 -0.0362558 -0.0270551 1.52199 -0.0361999 -0.0265325 1.52216 
-0.0340104 -0.0255126 1.52378 -0.0341501 -0.0253501 1.52369 -0.0338661 -0.0256608 1.52387 
-0.0357038 -0.0257912 1.52294 -0.0337267 -0.0258025 1.52397 -0.0335569 -0.0249735 1.52385 
-0.033406 -0.0251229 1.52392 -0.0332576 -0.0252784 1.52399 -0.034644 -0.0220445 1.52227 
-0.0347218 -0.0221927 1.52234 -0.0348064 -0.0223629 1.52242 -0.0364651 -0.024244 1.52174 
-0.0366012 -0.0243536 1.52163 -0.0348348 -0.0230479 1.52293 -0.0337579 -0.0231457 1.524 
-0.0336318 -0.0232539 1.52411 -0.0342678 -0.0240485 1.52357 -0.03488 -0.0232512 1.52297 
-0.0346581 -0.0234684 1.52323 -0.0345448 -0.0235822 1.52336 -0.0347724 -0.0233578 1.5231 
-0.0350578 -0.023055 1.52269 -0.035203 -0.0231477 1.5226 -0.0352584 -0.023335 1.52264 
-0.0351412 -0.0229608 1.52255 -0.0352916 -0.0230532 1.52246 -0.0350557 -0.0227483 1.52249 
-0.0356297 -0.0229694 1.52209 -0.0376102 -0.0243237 1.52023 -0.0378499 -0.0240866 1.51951 
-0.0377118 -0.0239752 1.51962 -0.0375796 -0.0238712 1.51973 -0.0382775 -0.0250915 1.51946 
-0.0379754 -0.0242006 1.51939 -0.0380884 -0.0243373 1.51927 -0.0383276 -0.0250468 1.51663 
-0.0383616 -0.0250152 1.51684 -0.0380641 -0.0243325 1.51666 -0.0379647 -0.0242057 1.51653 
-0.0380383 -0.024366 1.51646 -0.0383139 -0.0248146 1.51689 -0.038293 -0.0245985 1.51716 
-0.0383149 -0.0245709 1.51737 -0.0384266 -0.025193 1.517 -0.038498 -0.0252894 1.51751 
-0.0382922 -0.0250802 1.51642 -0.0378581 -0.0240675 1.5164 -0.0381443 -0.0239955 1.51779 
-0.0381492 -0.0239399 1.51801 -0.0380716 -0.0238287 1.51786 -0.0380542 -0.0238654 1.51765 
-0.038222 -0.0241227 1.51792 -0.0377122 -0.0235061 1.51727 -0.0378316 -0.0236137 1.51739 
-0.037618 -0.0233654 1.51735 -0.0379516 -0.0237368 1.51752 -0.037716 -0.0235146 1.51887 
-0.0379982 -0.023688 1.51845 -0.0378853 -0.0235707 1.51856 -0.0377543 -0.0234661 1.51867 
-0.0379761 -0.0237271 1.51865 -0.0380819 -0.0238537 1.51852 -0.0380494 -0.0238965 1.51873 
-0.0374854 -0.0232434 1.51726 -0.0373725 -0.0231207 1.51737 -0.0372215 -0.0230238 1.51727 
-0.0375775 -0.0233794 1.51716 -0.0354207 -0.0222311 1.52187 -0.0355706 -0.0223273 1.52178 
-0.0357118 -0.0224239 1.52167 -0.0354567 -0.0210297 1.52163 -0.0359058 -0.022247 1.52138 
-0.0357742 -0.0221323 1.5215 -0.0358051 -0.0223284 1.52153 -0.03564 -0.022029 1.5216 
-0.0356725 -0.0222308 1.52164 -0.0355295 -0.0221322 1.52174 -0.0360218 -0.0223508 1.52126 
-0.0359361 -0.0224344 1.52142 -0.0358484 -0.0225221 1.52156 -0.0361273 -0.0224648 1.52112 
-0.0357256 -0.0210254 1.52128 -0.035762 -0.0210178 1.52119 -0.0359462 -0.0214453 1.52092 
-0.0359824 -0.0216601 1.52096 -0.0360392 -0.0218145 1.5208 -0.036093 -0.0219758 1.52063 
-0.0358132 -0.0220628 1.5194 -0.0357091 -0.0219307 1.51951 -0.035647 -0.0219718 1.5193 
-0.0357726 -0.0220938 1.51919 -0.0355464 -0.0218381 1.51941 -0.0358786 -0.0221919 1.5188 
-0.0357471 -0.022118 1.51896 -0.0359072 -0.0221932 1.51905 -0.0360404 -0.0222442 1.51938 
-0.0360661 -0.0222809 1.51918 -0.0362111 -0.0223771 1.51909 -0.0362144 -0.0223757 1.51883 
-0.0360556 -0.0222823 1.51894 -0.0360695 -0.0219323 1.52044 -0.0360119 -0.0218051 1.52035 
-0.0358074 -0.021575 1.52008 -0.0359202 -0.0216792 1.52021 -0.0352127 -0.0214145 1.51954 
-0.0374563 -0.0237601 1.51984 -0.0373404 -0.0236408 1.51995 -0.0372667 -0.0239643 1.52059 
-0.0371486 -0.0238434 1.52071 -0.0373793 -0.0240829 1.52047 -0.0374928 -0.0242038 1.52035 
-0.0372565 -0.0230039 1.51843 -0.0373816 -0.0231189 1.51857 -0.0373503 -0.0231501 1.51877 
-0.0372019 -0.023056 1.51886 -0.0376103 -0.0233724 1.51877 -0.0374652 -0.0232822 1.51887 
-0.0373119 -0.0231826 1.51897 -0.0371296 -0.0228993 1.51808 -0.0371161 -0.0228962 1.51784 
-0.0369712 -0.022807 1.51799 -0.0368253 -0.0227244 1.51812 -0.036977 -0.0228123 1.51822 
-0.0368347 -0.0227349 1.51835 -0.0368571 -0.0227595 1.51854 -0.0369811 -0.0228295 1.51844 
-0.0331787 -0.0286066 1.52237 -0.0337473 -0.0285825 1.52234 -0.0332513 -0.0283629 1.52302 
-0.0334103 -0.0282814 1.52319 -0.0330608 -0.0283885 1.52307 -0.0328553 -0.0284235 1.52309 
-0.0339491 -0.0291968 1.52128 -0.0338251 -0.0291015 1.52143 -0.0340575 -0.029103 1.52142 
-0.0342973 -0.0288945 1.5217 -0.0345015 -0.0288774 1.52167 -0.0343949 -0.028985 1.52155 
-0.0341712 -0.0290036 1.52156 -0.0342823 -0.0290905 1.52142 -0.0340928 -0.0284528 1.52243 
-0.0338818 -0.0284804 1.52247 -0.0340097 -0.0283845 1.52259 -0.0339564 -0.0285575 1.52231 
-0.0350179 -0.0267139 1.52336 -0.0348803 -0.0265911 1.52345 -0.0352507 -0.0269435 1.52312 
-0.0338307 -0.0279537 1.52359 -0.0339267 -0.0278127 1.52369 -0.0340089 -0.0276426 1.52377 
-0.0368584 -0.0286064 1.52095 -0.0365703 -0.0278272 1.5216 -0.0346339 -0.0263668 1.5236 
-0.0347395 -0.0264656 1.52354 -0.0351467 -0.0268317 1.52325 -0.0363464 -0.0299837 1.51811 
-0.0366021 -0.0298006 1.51899 -0.0366316 -0.0298161 1.51878 -0.0366593 -0.0298299 1.51857 
-0.0358822 -0.030062 1.51883 -0.0358981 -0.0300786 1.51861 -0.0366676 -0.0298556 1.51758 
-0.0365026 -0.0299224 1.51774 -0.0366788 -0.029844 1.51835 -0.0365359 -0.0299183 1.51822 
-0.0358584 -0.0300327 1.51904 -0.0365745 -0.0297798 1.51921 -0.0361059 -0.0297696 1.51971 
-0.0369528 -0.0287072 1.5208 -0.0370402 -0.0287965 1.52064 -0.0356597 -0.029352 1.5207 
-0.0357794 -0.029236 1.52082 -0.0345385 -0.0292712 1.52115 -0.03471 -0.0292424 1.52117 
-0.0349156 -0.0290407 1.52138 -0.0348085 -0.0291518 1.52127 -0.0361 -0.0288237 1.52116 
-0.0352623 -0.0298187 1.51981 -0.0354787 -0.0298203 1.51978 -0.0358962 -0.0297925 1.51974 
-0.035694 -0.0298063 1.51978 -0.0356616 -0.0300327 1.51913 -0.0359217 -0.0300829 1.5184 
-0.0358638 -0.0300824 1.51813 -0.0361338 -0.0300377 1.518 -0.0359097 -0.0300622 1.51786 
-0.0363326 -0.0299809 1.51788 -0.0363283 -0.0299726 1.51766 -0.0361362 -0.0300235 1.51776 
-0.0361314 -0.0295541 1.5164 -0.0362115 -0.0296282 1.51657 -0.0367202 -0.0296935 1.51705 
-0.0370384 -0.0292669 1.51673 -0.0365183 -0.0285032 1.51554 -0.0338168 -0.0280982 1.515 
-0.0340343 -0.0281419 1.51497 -0.0342382 -0.0281763 1.51494 -0.0341627 -0.0280103 1.51486 
-0.0342967 -0.0278784 1.51477 -0.0343691 -0.0280409 1.51484 -0.0340923 -0.0278455 1.51479 
-0.0339525 -0.0279722 1.5149 -0.0351557 -0.0272275 1.51449 -0.0353941 -0.0271904 1.51451 
-0.0349638 -0.0265244 1.51426 -0.0345112 -0.0279059 1.51476 -0.0346371 -0.0277769 1.51469 
-0.0340506 -0.0271639 1.51451 -0.034692 -0.0272612 1.51448 -0.0348819 -0.0272648 1.51448 
-0.0345187 -0.0272123 1.51447 -0.0342608 -0.0271989 1.51449 -0.0349443 -0.0259821 1.51425 
-0.0349465 -0.0262682 1.51425 -0.0347074 -0.0261273 1.51425 -0.0344569 -0.0262377 1.51425 
-0.0342405 -0.0260502 1.51425 -0.0342229 -0.0263322 1.51425 -0.0345006 -0.0259976 1.51425 
-0.0346754 -0.0264235 1.51425 -0.0343833 -0.0264805 1.51425 -0.0341869 -0.026528 1.51426 
-0.0322332 -0.0279549 1.51607 -0.0327771 -0.0277072 1.51538 -0.0316582 -0.0264075 1.51572 
-0.0316781 -0.0273592 1.51622 -0.032245 -0.0272767 1.51558 -0.0323394 -0.0271798 1.51543 
-0.0321509 -0.0273703 1.51573 -0.0312587 -0.0261119 1.51604 -0.031136 -0.0260083 1.51616 
-0.0310507 -0.0261007 1.5163 -0.0309631 -0.0261898 1.51645 -0.0310976 -0.026307 1.51635 
-0.0315121 -0.0263036 1.51583 -0.031537 -0.0272499 1.51633 -0.0313978 -0.0271499 1.51645 
-0.0338403 -0.0271239 1.51456 -0.0336984 -0.0272623 1.51466 -0.0335686 -0.0273909 1.51476 
-0.033325 -0.0276298 1.51499 -0.0334516 -0.0275085 1.51488 -0.0324415 -0.0270818 1.51529 
-0.0324914 -0.0272652 1.51534 -0.0326559 -0.0273456 1.51526 -0.0329826 -0.0270205 1.5149 
-0.0330993 -0.0269054 1.51478 -0.0323566 -0.0261827 1.515 -0.0324595 -0.0260696 1.51487 
-0.032305 -0.0259741 1.51499 -0.032707 -0.0258264 1.51466 -0.0325727 -0.0259474 1.51476 
-0.032543 -0.0257392 1.51475 -0.0324075 -0.0258491 1.51487 -0.033505 -0.0255086 1.51427 
-0.0328526 -0.0256908 1.51456 -0.0326848 -0.0256089 1.51465 -0.0333479 -0.0266491 1.51456 
-0.0337475 -0.0259924 1.51425 -0.0335452 -0.0259547 1.51427 -0.0339685 -0.0260093 1.51425 
-0.0337485 -0.0255851 1.51425 -0.0335308 -0.0257133 1.51426 -0.0339721 -0.0256121 1.51425 
-0.0338805 -0.0258 1.51425 -0.0336956 -0.0258154 1.51425 -0.0340167 -0.0262466 1.51425 
-0.0340145 -0.0264594 1.51427 -0.0341797 -0.0255374 1.51425 -0.0342319 -0.0252771 1.51425 
-0.0341165 -0.0257854 1.51425 -0.0344024 -0.0257422 1.51425 -0.0346964 -0.025842 1.51425 
-0.0343997 -0.0254676 1.51425 -0.0346621 -0.0255252 1.51425 -0.0344995 -0.0252673 1.51425 
-0.0347296 -0.0252646 1.51425 -0.0322203 -0.0260982 1.5151 -0.0320958 -0.0260496 1.51521 
-0.0318207 -0.0257856 1.51541 -0.0317264 -0.026097 1.51556 -0.0318432 -0.0259812 1.51543 
-0.0319795 -0.0260992 1.51533 -0.0315812 -0.0259927 1.51566 -0.0316994 -0.0258838 1.51553 
-0.032453 -0.0249364 1.51487 -0.0324877 -0.0247408 1.5149 -0.0323324 -0.0248173 1.51498 
-0.0323297 -0.0249925 1.51496 -0.0320558 -0.0247902 1.51519 -0.0319204 -0.0246809 1.51532 
-0.032198 -0.02471 1.5151 -0.0320779 -0.0245908 1.51521 -0.0325791 -0.0250751 1.51476 
-0.0325457 -0.0252876 1.51476 -0.0328161 -0.0254988 1.51458 -0.0326831 -0.0254133 1.51466 
-0.0306905 -0.0259699 1.51666 -0.0304919 -0.0261629 1.51693 -0.0305925 -0.0260684 1.5168 
-0.0314666 -0.0260985 1.51579 -0.0309167 -0.0259898 1.51641 -0.0308237 -0.0260735 1.51655 
-0.0310087 -0.0258992 1.51626 -0.030786 -0.0258738 1.51651 -0.0308821 -0.0257726 1.51637 
-0.0310205 -0.0268611 1.51674 -0.0311749 -0.0269687 1.51662 -0.0312863 -0.0284872 1.51984 
-0.0311595 -0.028381 1.51997 -0.031305 -0.0284721 1.52006 -0.0311421 -0.0283957 1.51975 
-0.0328143 -0.0295719 1.51925 -0.0328538 -0.0295441 1.51946 -0.0327776 -0.0296029 1.51905 
-0.0329085 -0.0296855 1.51889 -0.0334814 -0.0298263 1.51897 -0.0335476 -0.0297832 1.51923 
-0.0337607 -0.0298066 1.51927 -0.0322438 -0.029334 1.51866 -0.0299822 -0.027192 1.51833 
-0.0310216 -0.0282965 1.51987 -0.0302526 -0.0278342 1.51911 -0.0309901 -0.0271335 1.51694 
-0.0303273 -0.026816 1.51748 -0.0302447 -0.0268965 1.51765 -0.0300913 -0.0268023 1.51775 
-0.030673 -0.0269223 1.51715 -0.0308296 -0.0270204 1.51705 -0.0312221 -0.0280505 1.51747 
-0.0310228 -0.0275339 1.5172 -0.0302652 -0.0273836 1.51813 -0.030341 -0.0275389 1.51821 
-0.0304251 -0.0276922 1.5183 -0.0307001 -0.0278856 1.5181 -0.0347595 -0.0300094 1.51902 
-0.0347199 -0.0300414 1.51884 -0.0350231 -0.0300228 1.5191 -0.035504 -0.0300566 1.51903 
-0.0352893 -0.0300521 1.51904 -0.0347704 -0.029822 1.51985 -0.035042 -0.0298284 1.51983 
-0.0351365 -0.0298744 1.51967 -0.0320572 -0.0289053 1.52027 -0.0321875 -0.0290081 1.52014 
-0.0323311 -0.0291195 1.52001 -0.0324534 -0.0292238 1.51988 -0.0318458 -0.0286321 1.52096 
-0.0317298 -0.0285382 1.5211 -0.0318761 -0.0286153 1.52117 -0.0319839 -0.0287396 1.52082 
-0.0321081 -0.0288879 1.52048 -0.0321186 -0.0288446 1.52069 -0.0322537 -0.0289538 1.52055 
-0.0330933 -0.0292989 1.52066 -0.0329562 -0.0292001 1.5208 -0.0328142 -0.0291082 1.52094 
-0.0324833 -0.0291957 1.52008 -0.032617 -0.029303 1.51995 -0.0325844 -0.029333 1.51975 
-0.0326506 -0.0292726 1.52015 -0.0323856 -0.0290592 1.52042 -0.0323654 -0.0290973 1.52021 
-0.032224 -0.0289875 1.52033 -0.0325164 -0.0291647 1.52029 -0.0329565 -0.0285952 1.52235 
-0.0327389 -0.0285825 1.52232 -0.0306922 -0.027357 1.5228 -0.030784 -0.0275217 1.52223 
-0.0307004 -0.0273899 1.5221 -0.0307183 -0.0273579 1.52232 -0.0305991 -0.0272624 1.52197 
-0.0306668 -0.0274294 1.5219 -0.030553 -0.0273049 1.52177 -0.0304877 -0.0271329 1.52184 
-0.0304406 -0.0271789 1.52164 -0.0305029 -0.0273481 1.52155 -0.0303903 -0.027225 1.52142 
-0.0305871 -0.0277507 1.52076 -0.0304803 -0.0276144 1.52086 -0.0304557 -0.0276472 1.52066 
-0.0301772 -0.026965 1.52118 -0.0302834 -0.0270983 1.52131 -0.0303554 -0.0275011 1.52075 
-0.0299425 -0.027193 1.52022 -0.0299945 -0.0271481 1.52041 -0.0300683 -0.0273102 1.52033 
-0.0301124 -0.0272688 1.52053 -0.030324 -0.0275355 1.52055 -0.0301946 -0.0274251 1.52045 
-0.0302336 -0.0273851 1.52064 -0.0300719 -0.0268361 1.52105 -0.0308912 -0.0281808 1.52 
-0.0310505 -0.028281 1.5201 -0.0311822 -0.0283602 1.52019 -0.0309109 -0.0281495 1.52023 
-0.0310563 -0.0282413 1.52032 -0.0309396 -0.0281244 1.52044 -0.0307935 -0.0280296 1.52035 
-0.0307047 -0.0278798 1.52066 -0.0308216 -0.0280033 1.52055 -0.0306739 -0.027905 1.52046 
-0.0305623 -0.0277781 1.52056 -0.0301549 -0.0274693 1.52025 -0.0300205 -0.0273566 1.52014 
-0.0306516 -0.0279436 1.52023 -0.0307644 -0.0280586 1.52013 -0.0305349 -0.0278156 1.52035 
-0.0304261 -0.0276786 1.52046 -0.0302865 -0.0275756 1.52036 -0.0302113 -0.027805 1.51927 
-0.0301265 -0.0277242 1.51935 -0.0310128 -0.0249122 1.52297 -0.030803 -0.0249482 1.5227 
-0.0306982 -0.0250783 1.52256 -0.030736 -0.0248761 1.52252 -0.0308391 -0.0247477 1.52267 
-0.0309187 -0.0248208 1.52283 -0.0309496 -0.0246149 1.52279 -0.0307208 -0.0243581 1.5221 
-0.0306664 -0.0252837 1.5226 -0.0305707 -0.0254191 1.52246 -0.0303439 -0.0249405 1.52175 
-0.0309342 -0.0239084 1.52233 -0.0309014 -0.0240926 1.52238 -0.0308135 -0.0242267 1.52224 
-0.0295621 -0.025747 1.52049 -0.029763 -0.025568 1.52117 -0.0297805 -0.0257457 1.5212 
-0.0297647 -0.0264182 1.52065 -0.0297756 -0.0259212 1.52114 -0.0298664 -0.0260679 1.52127 
-0.0298487 -0.0256455 1.52132 -0.029853 -0.0258464 1.52132 -0.0299524 -0.0257551 1.52149 
-0.0299444 -0.0255193 1.52145 -0.0299409 -0.0259976 1.52144 -0.0301727 -0.0252596 1.52168 
-0.0302948 -0.025136 1.5218 -0.0300624 -0.0253777 1.52157 -0.0299661 -0.0267 1.52093 
-0.0298616 -0.026566 1.52079 -0.03044 -0.0271743 1.52373 -0.0303901 -0.0272608 1.52395 
-0.0304106 -0.0270088 1.52395 -0.0301654 -0.0264731 1.52168 -0.0304637 -0.0260056 1.52236 
-0.0304764 -0.0262411 1.52241 -0.0304821 -0.0255606 1.52232 -0.0304701 -0.0257822 1.52234 
-0.0306609 -0.0262255 1.52332 -0.0304924 -0.0264572 1.52244 -0.030501 -0.0266331 1.52238 
-0.0306133 -0.0263702 1.52341 -0.0304743 -0.0270545 1.52355 -0.0306199 -0.0262001 1.52311 
-0.0298364 -0.0270935 1.51844 -0.0292856 -0.0264414 1.51857 -0.0294262 -0.0265578 1.51844 
-0.0298838 -0.0272417 1.52002 -0.0297658 -0.0269005 1.52017 -0.0298779 -0.0270238 1.5203 
-0.029474 -0.0262218 1.52001 -0.0294984 -0.026436 1.51997 -0.0291983 -0.0264972 1.51926 
-0.029091 -0.0261846 1.51898 -0.0291289 -0.0263385 1.51911 -0.0293883 -0.0260729 1.51989 
-0.0293166 -0.0259266 1.51977 -0.0292088 -0.0265517 1.51901 -0.0301367 -0.0277324 1.51918 
-0.030051 -0.0276513 1.51927 -0.0300218 -0.027611 1.51941 -0.0323324 -0.0249914 1.52383 
-0.032381 -0.024809 1.52384 -0.0326455 -0.02454 1.52398 -0.03252 -0.024693 1.5239 
-0.0330169 -0.0252103 1.524 -0.0318653 -0.0219546 1.52282 -0.0316723 -0.0219913 1.52285 
-0.0317675 -0.0218702 1.52296 -0.0319677 -0.0218523 1.52296 -0.0318578 -0.0217597 1.52309 
-0.0325926 -0.0216909 1.52356 -0.0311933 -0.0230158 1.52232 -0.0299638 -0.0262094 1.5214 
-0.0300609 -0.0263432 1.52154 -0.0310541 -0.0244739 1.52291 -0.0311204 -0.0241484 1.52306 
-0.0311503 -0.0243664 1.52306 -0.0316315 -0.0252446 1.52356 -0.0316757 -0.0250488 1.52352 
-0.0312637 -0.0249081 1.52322 -0.0311581 -0.0245851 1.52306 -0.0312702 -0.0246926 1.52319 
-0.0314019 -0.0248058 1.52331 -0.0311444 -0.0247944 1.52308 -0.0310436 -0.024698 1.52294 
-0.031388 -0.0250095 1.52334 -0.031544 -0.0249168 1.52341 -0.0308912 -0.0250338 1.52286 
-0.0307748 -0.0251567 1.52274 -0.0306971 -0.0262536 1.52351 -0.0308275 -0.0261475 1.52362 
-0.0315795 -0.0219069 1.52298 -0.0311713 -0.0224552 1.52281 -0.0310794 -0.0223553 1.52295 
-0.0307623 -0.0227968 1.52311 -0.0308977 -0.0226654 1.523 -0.0309197 -0.0224544 1.52304 
-0.0324028 -0.0216367 1.52349 -0.0312088 -0.026243 1.52469 -0.0323555 -0.0263382 1.52499 
-0.0314201 -0.0260218 1.52424 -0.0315448 -0.0259073 1.52411 -0.0316513 -0.0257787 1.52399 
-0.0317551 -0.0256347 1.52389 -0.0311685 -0.0262154 1.52449 -0.0312926 -0.0261237 1.52437 
-0.0335292 -0.0272283 1.52472 -0.0333933 -0.0271607 1.52491 -0.0334648 -0.0270219 1.52475 
-0.0334611 -0.0273045 1.52485 -0.0335151 -0.0274847 1.52478 -0.0326 -0.0284281 1.52409 
-0.0328086 -0.0283673 1.52401 -0.032851 -0.0283637 1.52377 -0.0328001 -0.0283893 1.52347 
-0.0337821 -0.027902 1.52378 -0.0338711 -0.0277461 1.52387 -0.0336745 -0.0280301 1.52367 
-0.0335119 -0.028115 1.52374 -0.0335372 -0.0281459 1.52354 -0.033577 -0.0275175 1.52466 
-0.0317227 -0.0248062 1.52351 -0.0312329 -0.0242676 1.52321 -0.0315403 -0.0246916 1.5234 
-0.031259 -0.0244739 1.52319 -0.0313925 -0.0245814 1.5233 -0.0308681 -0.0276781 1.52251 
-0.0307776 -0.0275241 1.52265 -0.0316417 -0.0284259 1.52281 -0.0310757 -0.0282471 1.52349 
-0.0307427 -0.0275829 1.52181 -0.0308605 -0.0277033 1.52195 -0.0307716 -0.0275543 1.52203 
-0.0308481 -0.0276332 1.52234 -0.0308716 -0.0276785 1.52217 -0.0315823 -0.0284296 1.52123 
-0.0316626 -0.0283962 1.5219 -0.0319043 -0.0285922 1.52138 -0.0317399 -0.0285136 1.52131 
-0.0325175 -0.0285693 1.52228 -0.0334957 -0.0291712 1.52125 -0.0333059 -0.0295913 1.51998 
-0.0337165 -0.0291846 1.52127 -0.0338525 -0.0292858 1.52112 -0.0336374 -0.029266 1.52111 
-0.0338186 -0.0295608 1.52045 -0.0347063 -0.0297539 1.52011 -0.0345214 -0.0297621 1.52 
-0.0344966 -0.0298043 1.51979 -0.0345086 -0.0297187 1.52019 -0.0340121 -0.0295845 1.52047 
-0.0342241 -0.0296091 1.5205 -0.0343701 -0.02967 1.52033 -0.0342717 -0.0297817 1.51974 
-0.0340425 -0.0298033 1.51948 -0.0340805 -0.0297626 1.5197 -0.0339735 -0.0298313 1.5193 
-0.0341786 -0.0291915 1.52129 -0.0344008 -0.0291838 1.52128 -0.0343073 -0.0292868 1.52114 
-0.0340859 -0.0292886 1.52114 -0.0307975 -0.0280387 1.5182 -0.030566 -0.0277894 1.51819 
-0.0308976 -0.0281779 1.5183 -0.0309377 -0.028132 1.51809 -0.0310382 -0.028269 1.5182 
-0.0314167 -0.0285688 1.51811 -0.0312696 -0.0284696 1.5182 -0.0313992 -0.0286013 1.51834 
-0.0313858 -0.0281875 1.51741 -0.0312393 -0.0285124 1.51915 -0.0313788 -0.0286201 1.51903 
-0.0312399 -0.0285133 1.51891 -0.0310797 -0.0283992 1.51904 -0.0311 -0.0284112 1.5193 
-0.0315384 -0.0286961 1.51823 -0.031796 -0.0289215 1.51824 -0.0320275 -0.0291418 1.51846 
-0.0319143 -0.0290376 1.51835 -0.0316828 -0.0288 1.51812 -0.0315665 -0.0286708 1.51802 
-0.0316275 -0.0288076 1.51859 -0.0316588 -0.0288359 1.51878 -0.0315245 -0.0287166 1.51845 
-0.0316598 -0.0288184 1.51834 -0.03178 -0.0289283 1.51846 -0.0312516 -0.0285162 1.51868 
-0.0313817 -0.028622 1.51879 -0.0315142 -0.0287258 1.5189 -0.0313876 -0.0286184 1.51856 
-0.0315166 -0.0287256 1.51867 -0.0311388 -0.0283952 1.51834 -0.0312631 -0.0285093 1.51845 
-0.0314512 -0.0285424 1.51792 -0.0311664 -0.0283647 1.51814 -0.0312528 -0.0285102 1.51939 
-0.0311412 -0.0284206 1.51953 -0.0316702 -0.0288414 1.51896 -0.0314171 -0.0285938 1.51971 
-0.0314013 -0.028606 1.51949 -0.0312701 -0.0284997 1.51962 -0.0315215 -0.0287037 1.51936 
-0.0316718 -0.0288231 1.51923 -0.0321423 -0.0292468 1.51856 -0.0321425 -0.0292327 1.51875 
-0.0318079 -0.0289346 1.51907 -0.0319441 -0.0290384 1.51901 -0.0323997 -0.0280516 1.516 
-0.0350859 -0.0288039 1.5153 -0.0352417 -0.0289071 1.5154 -0.0353589 -0.0290344 1.51551 
-0.035268 -0.029167 1.51561 -0.0348715 -0.0291751 1.51561 -0.0350287 -0.0289316 1.5154 
-0.0349517 -0.0290537 1.5155 -0.0351609 -0.0290493 1.51551 -0.035065 -0.0291717 1.51561 
-0.0348611 -0.0289602 1.51542 -0.0351863 -0.0279092 1.51477 -0.0353207 -0.0280324 1.51485 
-0.035399 -0.0278756 1.51478 -0.0350864 -0.0277963 1.5147 -0.0347349 -0.0279214 1.51475 
-0.0349733 -0.0279313 1.51475 -0.0362684 -0.0289969 1.51579 -0.0361044 -0.0283334 1.51523 
-0.0362995 -0.0299674 1.51745 -0.0360747 -0.029755 1.51671 -0.0364509 -0.0299037 1.51731 
-0.0365945 -0.029813 1.51718 -0.0366368 -0.0298494 1.51737 -0.0364865 -0.029919 1.51751 
-0.0360027 -0.0287207 1.5213 -0.0346129 -0.0279763 1.5229 -0.0354287 -0.0276382 1.52234 
-0.0357959 -0.0268434 1.52248 -0.0355444 -0.0270327 1.52268 -0.0347234 -0.0288361 1.52165 
-0.0347539 -0.0284023 1.52216 -0.034816 -0.0289353 1.52151 -0.0348454 -0.0284855 1.52201 
-0.0348268 -0.0287089 1.52176 -0.0354843 -0.0281776 1.52191 -0.0355204 -0.0277395 1.52219 
-0.0344776 -0.0281232 1.52279 -0.0371312 -0.0233681 1.51999 -0.0370362 -0.0232207 1.51989 
-0.0369852 -0.0232751 1.52031 -0.0371051 -0.023393 1.52019 -0.0368591 -0.02316 1.52043 
-0.0372243 -0.0235206 1.52007 -0.0367636 -0.0230089 1.52034 -0.036634 -0.022892 1.52046 
-0.0366704 -0.0228691 1.52025 -0.0362249 -0.0225888 1.521 -0.0363397 -0.022711 1.52088 
-0.0365413 -0.0227438 1.52037 -0.0364683 -0.0228259 1.52077 -0.0382133 -0.0240612 1.51811 
-0.0381846 -0.0244617 1.51913 -0.0382779 -0.0246034 1.51899 -0.0381463 -0.0240239 1.5186 
-0.0381644 -0.0239774 1.5184 -0.0382345 -0.0241081 1.51827 -0.0382295 -0.0241497 1.51848 
-0.0385397 -0.0252662 1.51854 -0.0385179 -0.0253033 1.51774 -0.0384456 -0.0247629 1.51832 
-0.0384041 -0.0246476 1.51844 -0.0385002 -0.0250206 1.51807 -0.0384887 -0.0249457 1.5183 
-0.0384579 -0.0248127 1.51813 -0.0384128 -0.0246616 1.51797 -0.0385205 -0.0253068 1.51876 
-0.0355179 -0.0240361 1.52269 -0.0355533 -0.0242368 1.52273 -0.0354058 -0.0241458 1.52281 
-0.0351603 -0.0243691 1.52303 -0.0361682 -0.0243107 1.52217 -0.0353497 -0.0232427 1.52251 
-0.0355358 -0.0230545 1.52223 -0.0354419 -0.0231467 1.52237 -0.035683 -0.0231503 1.52213 
-0.0358172 -0.0232471 1.52203 -0.0357289 -0.023343 1.52218 -0.0355886 -0.0232451 1.52227 
-0.0349633 -0.0250882 1.52331 -0.0351876 -0.0245798 1.52306 -0.0360877 -0.025319 1.52256 
-0.0360891 -0.0255044 1.52257 -0.0361801 -0.0254059 1.52247 -0.0359821 -0.025411 1.52268 
-0.0358547 -0.0257033 1.52281 -0.035867 -0.0255079 1.52279 -0.0359815 -0.0256052 1.52269 
-0.038536 -0.0273915 1.51787 -0.0385278 -0.0276579 1.51813 -0.0385351 -0.0277003 1.51833 
-0.0384909 -0.0278622 1.51817 -0.0384986 -0.0279072 1.51838 -0.0384208 -0.0280046 1.51802 
-0.0382086 -0.0282724 1.51914 -0.0383135 -0.0281531 1.51901 -0.0385249 -0.02776 1.51851 
-0.0384895 -0.0279168 1.51858 -0.0384995 -0.0273405 1.5192 -0.0384653 -0.0279371 1.51876 
-0.0384031 -0.0280335 1.51888 -0.0384249 -0.0275036 1.51936 -0.0385175 -0.0277211 1.5187 
-0.0385532 -0.0274636 1.51875 -0.0385302 -0.027393 1.51898 -0.0377483 -0.02669 1.51547 
-0.0384664 -0.0269227 1.51715 -0.0385538 -0.0267044 1.51744 -0.0383141 -0.0271714 1.51691 
-0.038404 -0.0270329 1.51704 -0.0382049 -0.0273148 1.51676 -0.0379418 -0.0270533 1.51607 
-0.038502 -0.025774 1.5171 -0.0385555 -0.0260212 1.51737 -0.0382278 -0.0255435 1.51592 
-0.0382713 -0.0257149 1.5161 -0.0380912 -0.0260061 1.51566 -0.0383284 -0.0257913 1.51633 
-0.0383181 -0.0260179 1.51636 -0.0385521 -0.0265389 1.51736 -0.0385662 -0.026303 1.51742 
-0.0385077 -0.0267171 1.51721 -0.0385134 -0.0264473 1.51715 -0.0382365 -0.0266422 1.51647 
-0.0382676 -0.0264312 1.51644 -0.0382929 -0.0262226 1.51639 -0.0383643 -0.0260782 1.51654 
-0.0385252 -0.0259648 1.51717 -0.0385239 -0.026218 1.51716 -0.0320566 -0.021758 1.52311 
-0.0321804 -0.0218433 1.52296 -0.0321339 -0.0216617 1.52327 -0.0342855 -0.0208276 1.5221 
-0.0345223 -0.0208646 1.5221 -0.033339 -0.0224274 1.51621 -0.0348371 -0.0221798 1.51624 
-0.0338998 -0.0220948 1.51698 -0.0341384 -0.0221361 1.51682 -0.0329461 -0.0220763 1.51749 
-0.0328235 -0.0221348 1.51733 -0.0326104 -0.0221701 1.51738 -0.0330768 -0.0221754 1.51695 
-0.0331011 -0.0219899 1.51764 -0.0333064 -0.0219569 1.5176 -0.0335115 -0.0219366 1.51756 
-0.0334089 -0.022487 1.51604 -0.0329062 -0.0227036 1.516 -0.0329829 -0.0227872 1.51584 
-0.0328742 -0.0221665 1.5171 -0.0328374 -0.0222167 1.5169 -0.0321491 -0.0224125 1.51694 
-0.0324081 -0.0224055 1.51669 -0.0324753 -0.0224943 1.51652 -0.0349159 -0.02217 1.51643 
-0.0346968 -0.0221712 1.51642 -0.034478 -0.0221838 1.51642 -0.0330985 -0.0226469 1.51596 
-0.0332883 -0.0225991 1.51591 -0.0331709 -0.0227228 1.51579 -0.0336907 -0.0227802 1.51536 
-0.0340409 -0.0224075 1.51572 -0.0339139 -0.0225244 1.5156 -0.0382996 -0.0266841 1.52003 
-0.0382903 -0.0264843 1.52007 -0.0383603 -0.0265797 1.51993 -0.0381549 -0.0272715 1.52008 
-0.0382665 -0.0271291 1.51995 -0.0382916 -0.0269193 1.51999 -0.0375273 -0.0262918 1.52113 
-0.0373149 -0.0260272 1.52134 -0.0372979 -0.0262395 1.52136 -0.0374112 -0.0261662 1.52125 
-0.0383028 -0.026245 1.52002 -0.038097 -0.0257472 1.52024 -0.0378883 -0.025514 1.52047 
-0.0379883 -0.0256135 1.52037 -0.0376665 -0.0249523 1.52053 -0.0375485 -0.024838 1.52066 
-0.0375895 -0.025052 1.52071 -0.0375313 -0.0265165 1.52114 -0.0375289 -0.0267262 1.52115 
-0.0374171 -0.0266006 1.52126 -0.0337718 -0.0295797 1.51636 -0.0343245 -0.0297777 1.51664 
-0.0344977 -0.0297593 1.51659 -0.0346837 -0.0297665 1.5166 -0.0349579 -0.0297861 1.51662 
-0.0344552 -0.0299846 1.51743 -0.0342671 -0.0299581 1.51735 -0.0344265 -0.0300259 1.51763 
-0.0335831 -0.0297851 1.51718 -0.0330617 -0.0293227 1.51669 -0.0331792 -0.0294689 1.5168 
-0.0334338 -0.0296984 1.51704 -0.0335533 -0.0298098 1.51739 -0.0327579 -0.0291684 1.51684 
-0.0342576 -0.0299943 1.51753 -0.0338125 -0.0299805 1.51825 -0.0335234 -0.0298284 1.51759 
-0.0332463 -0.0224944 1.52443 -0.0333969 -0.0220713 1.52363 -0.0335152 -0.0222179 1.52374 
-0.0336546 -0.0223023 1.52365 -0.0338086 -0.0223886 1.52356 -0.0335531 -0.0221631 1.52354 
-0.0335853 -0.0221205 1.52334 -0.03342 -0.0220436 1.52342 -0.0333755 -0.02323 1.52432 
-0.0331538 -0.0229983 1.52457 -0.0372745 -0.0264993 1.52138 -0.0374175 -0.0263649 1.52126 
-0.0325991 -0.0223711 1.51664 -0.0327296 -0.0222695 1.51678 -0.0341843 -0.0220132 1.51718 
-0.0340923 -0.0220814 1.51699 -0.0339997 -0.0220393 1.51713 -0.0339825 -0.02223 1.51645 
-0.0342473 -0.0221968 1.51648 -0.0349139 -0.0209131 1.52199 -0.035274 -0.0209623 1.52179 
-0.0380449 -0.0269217 1.5162 -0.0381409 -0.0267914 1.51633 -0.0352251 -0.024794 1.52309 
-0.0350953 -0.0249338 1.52321 -0.0382861 -0.0243232 1.51854 -0.0383377 -0.0245072 1.51859 
-0.0383137 -0.0245549 1.51879 -0.0364253 -0.0226271 1.52049 -0.0363847 -0.0226602 1.5207 
-0.0365067 -0.0227775 1.52058 -0.0369156 -0.0230976 1.52001 -0.0370129 -0.0232432 1.5201 
-0.0367896 -0.0229756 1.52013 -0.0368898 -0.0231251 1.52022 -0.0355844 -0.0282777 1.5218 
-0.0349331 -0.0285737 1.52187 -0.0320351 -0.0291221 1.51887 -0.0320094 -0.0291187 1.51868 
-0.0313866 -0.0286154 1.51926 -0.031519 -0.0287212 1.51913 -0.0323817 -0.0286361 1.52188 
-0.0322658 -0.0285701 1.52202 -0.0324376 -0.0285985 1.52207 -0.0316019 -0.0284166 1.52145 
-0.0317652 -0.0284979 1.52153 -0.0316256 -0.0284031 1.52168 -0.0304545 -0.0269781 1.52371 
-0.0315069 -0.0244775 1.52342 -0.0316699 -0.0245695 1.5235 -0.0317835 -0.0244448 1.52362 
-0.0310563 -0.0262945 1.52462 -0.033127 -0.0268246 1.52499 -0.0332915 -0.0270039 1.52496 
-0.0317415 -0.025365 1.52368 -0.0309751 -0.0237162 1.52229 -0.0313977 -0.0238833 1.52425 
-0.0312332 -0.0229826 1.52206 -0.0312312 -0.0229582 1.52186 -0.0313246 -0.0228322 1.52197 
-0.0320733 -0.0219318 1.5228 -0.0295389 -0.0266422 1.51992 -0.0296544 -0.0267724 1.52005 
-0.0307066 -0.0273194 1.52256 -0.0307851 -0.027512 1.52244 -0.0307811 -0.0280352 1.52367 
-0.0309229 -0.0281468 1.52357 -0.0310471 -0.0282831 1.52369 -0.0327664 -0.028416 1.52327 
-0.0299694 -0.0253021 1.52142 -0.0298535 -0.0254319 1.5213 -0.0304139 -0.0250084 1.52192 
-0.0314321 -0.0285802 1.51992 -0.031611 -0.0261937 1.51569 -0.0325318 -0.0255163 1.51475 
-0.0332223 -0.0267847 1.51467 -0.0320047 -0.0272812 1.51582 -0.0317683 -0.0272744 1.51607 
-0.0332077 -0.027753 1.51509 -0.0330932 -0.0278655 1.51522 -0.0321083 -0.0278507 1.5161 
-0.03556 -0.0298691 1.51964 -0.0347436 -0.0262711 1.52354 -0.0337067 -0.0280792 1.52347 
-0.0335719 -0.0281865 1.52334 -0.0371234 -0.0229047 1.51831 -0.0375007 -0.0232394 1.51867 
-0.035931 -0.0221785 1.51929 -0.0358287 -0.0211336 1.52108 -0.0383315 -0.0245391 1.51759 
-0.0382936 -0.0243105 1.51788 -0.0383497 -0.0245044 1.51781 -0.0380781 -0.0237795 1.51809 
-0.0381651 -0.0239456 1.5182 -0.0380925 -0.0238094 1.51832 -0.0381651 -0.0244709 1.5168 
-0.0382619 -0.0246278 1.51695 -0.0359016 -0.0231605 1.52188 -0.0383198 -0.0281444 1.51786 
-0.0382111 -0.0282737 1.51771 -0.038553 -0.0275773 1.51853 -0.0378249 -0.0240924 1.51619 
-0.0379351 -0.0242276 1.51633 -0.037748 -0.0239359 1.51628 -0.0369343 -0.0228215 1.51732 
-0.0373486 -0.02362 1.51572 -0.0340367 -0.0249822 1.51425 -0.0343381 -0.0250289 1.51425 
-0.0339856 -0.0247604 1.51425 -0.0315159 -0.0244565 1.51582 -0.0316525 -0.0243563 1.51572 
-0.0311178 -0.0247831 1.51613 -0.0351257 -0.0230457 1.51465 -0.0340436 -0.021195 1.51924 
-0.0342658 -0.0212112 1.51927 -0.0341552 -0.0213299 1.51911 -0.0360551 -0.0222978 1.51826 
-0.0358983 -0.0222187 1.5184 -0.0358887 -0.0222278 1.51816 -0.0333542 -0.0212655 1.51928 
-0.0332132 -0.0213756 1.51915 -0.0320956 -0.0219244 1.51926 -0.0360998 -0.0239083 1.51428 
-0.0361405 -0.0241081 1.51426 -0.0294851 -0.0247539 1.52 -0.0305071 -0.0231915 1.5184 
-0.0304462 -0.023147 1.51903 -0.0303163 -0.0232526 1.51914 -0.0305689 -0.0230228 1.51914 
-0.0300258 -0.0236705 1.51887 -0.0301441 -0.0235485 1.51875 -0.0313969 -0.0221829 1.51998 
-0.0315125 -0.0220671 1.5201 -0.0313462 -0.0221486 1.52018 -0.0312299 -0.0222558 1.52005 
-0.0309185 -0.0226596 1.51949 -0.0307674 -0.0227373 1.51959 -0.0308833 -0.0226165 1.5197 
-0.0310428 -0.0225401 1.51962 -0.0300369 -0.0234465 1.5196 -0.0299522 -0.0235958 1.51951 
-0.0298395 -0.0237271 1.51964 -0.0299227 -0.0235783 1.51973 -0.0319114 -0.0217516 1.52046 
-0.0317834 -0.0218682 1.52055 -0.0320551 -0.0216401 1.52057 -0.0317758 -0.0223007 1.52157 
-0.0328552 -0.0207539 1.52072 -0.0337729 -0.0217478 1.52231 -0.0348853 -0.0222496 1.52226 
-0.035198 -0.0219598 1.51832 -0.034738 -0.0217289 1.51878 -0.0336631 -0.0218711 1.51768 
-0.033741 -0.0215394 1.51855 -0.0335612 -0.0215554 1.51852 -0.0324067 -0.02221 1.51742 
-0.0327963 -0.0216817 1.51876 -0.0321642 -0.0229427 1.51623 -0.0347954 -0.0226969 1.51502 
-0.0371686 -0.0279106 1.52124 -0.0370427 -0.0277955 1.52136 -0.0356638 -0.0300768 1.51795 
-0.0360379 -0.0294892 1.51625 -0.0359237 -0.0296062 1.51638 -0.0360043 -0.0296831 1.51654 
-0.0330705 -0.0297699 1.51837 -0.0346838 -0.0300778 1.51861 -0.034462 -0.0300555 1.51857 
-0.0331831 -0.0240114 1.52416 -0.0333261 -0.0241471 1.52406 -0.0327567 -0.023506 1.52466 
-0.0327708 -0.0236423 1.52455 -0.0338009 -0.0299688 1.51846 -0.0336292 -0.0299142 1.51862 
-0.032563 -0.0293615 1.51762 -0.0326904 -0.0294705 1.51774 -0.0383136 -0.0252873 1.5195 
-0.0297416 -0.0243839 1.52063 -0.0296913 -0.0245921 1.52067 -0.0298211 -0.024459 1.52081 
-0.0315924 -0.0223799 1.51851 -0.031734 -0.0222853 1.51865 -0.0327316 -0.0213401 1.51969 
-0.0363038 -0.023472 1.52156 -0.0344088 -0.0234853 1.52347 -0.0338128 -0.0284115 1.52262 
-0.0336739 -0.0285115 1.52249 -0.0345012 -0.0290766 1.52141 -0.0347122 -0.0290568 1.5214 
-0.0346092 -0.0289641 1.52153 -0.0346236 -0.0291665 1.52128 -0.0363539 -0.0290948 1.51595 
-0.0327151 -0.0294412 1.5196 -0.0306254 -0.0274662 1.52169 -0.0336773 -0.0263397 1.52417 
-0.0316582 -0.028405 1.52258 -0.0356604 -0.0281331 1.51498 -0.0354505 -0.0281608 1.51495 
-0.0355332 -0.0280061 1.51488 -0.0355834 -0.0282998 1.51506 -0.0356856 -0.0242862 1.52263 
-0.0334923 -0.0227163 1.5242 
CELLS 14557 43668
OFFSETS vtktypeint64
0 3 6 9 12 15 18 21 24 
27 30 33 36 39 42 45 48 51 
54 57 60 63 66 69 72 75 78 
81 84 87 90 93 96 99 102 105 
108 111 114 117 120 123 126 129 132 
135 138 141 144 147 150 153 156 159 
162 165 168 171 174 177 180 183 186 
189 192 195 198 201 204 207 210 213 
216 219 222 225 228 231 234 237 240 
243 246 249 252 255 258 261 264 267 
270 273 276 279 282 285 288 291 294 
297 300 303 306 309 312 315 318 321 
324 327 330 333 336 339 342 345 348 
351 354 357 360 363 366 369 372 375 
378 381 384 387 390 393 396 399 402 
405 408 411 414 417 420 423 426 429 
432 435 438 441 444 447 450 453 456 
459 462 465 468 471 474 477 480 483 
486 489 492 495 498 501 504 507 510 
513 516 519 522 525 528 531 534 537 
540 543 546 549 552 555 558 561 564 
567 570 573 576 579 582 585 588 591 
594 597 600 603 606 609 612 615 618 
621 624 627 630 633 636 639 642 645 
648 651 654 657 660 663 666 669 672 
675 678 681 684 687 690 693 696 699 
702 705 708 711 714 717 720 723 726 
729 732 735 738 741 744 747 750 753 
756 759 762 765 768 771 774 777 780 
783 786 789 792 795 798 801 804 807 
810 813 816 819 822 825 828 831 834 
837 840 843 846 849 852 855 858 861 
864 867 870 873 876 879 882 885 888 
891 894 897 900 903 906 909 912 915 
918 921 924 927 930 933 936 939 942 
945 948 951 954 957 960 963 966 969 
972 975 978 981 984 987 990 993 996 
999 1002 1005 1008 1011 1014 1017 1020 1023 
1026 1029 1032 1035 1038 1041 1044 1047 1050 
1053 1056 1059 1062 1065 1068 1071 1074 1077 
1080 1083 1086 1089 1092 1095 1098 1101 1104 
1107 1110 1113 1116 1119 1122 1125 1128 1131 
1134 1137 1140 1143 1146 1149 1152 1155 1158 
1161 1164 1167 1170 1173 1176 1179 1182 1185 
1188 1191 1194 1197 1200 1203 1206 1209 1212 
1215 1218 1221 1224 1227 1230 1233 1236 1239 
1242 1245 1248 1251 1254 1257 1260 1263 1266 
1269 1272 1275 1278 1281 1284 1287 1290 1293 
1296 1299 1302 1305 1308 1311 1314 1317 1320 
1323 1326 1329 1332 1335 1338 1341 1344 1347 
1350 1353 1356 1359 1362 1365 1368 1371 1374 
1377 1380 1383 1386 1389 1392 1395 1398 1401 
1404 1407 1410 1413 1416 1419 1422 1425 1428 
1431 1434 1437 1440 1443 1446 1449 1452 1455 
1458 1461 1464 1467 1470 1473 1476 1479 1482 
1485 1488 1491 1494 1497 1500 1503 1506 1509 
1512 1515 1518 1521 1524 1527 1530 1533 1536 
1539 1542 1545 1548 1551 1554 1557 1560 1563 
1566 1569 1572 1575 1578 1581 1584 1587 1590 
1593 1596 1599 1602 1605 1608 1611 1614 1617 
1620 1623 1626 1629 1632 1635 1638 1641 1644 
1647 1650 1653 1656 1659 1662 1665 1668 1671 
1674 1677 1680 1683 1686 1689 1692 1695 1698 
1701 1704 1707 1710 1713 1716 1719 1722 1725 
1728 1731 1734 1737 1740 1743 1746 1749 1752 
1755 1758 1761 1764 1767 1770 1773 1776 1779 
1782 1785 1788 1791 1794 1797 1800 1803 1806 
1809 1812 1815 1818 1821 1824 1827 1830 1833 
1836 1839 1842 1845 1848 1851 1854 1857 1860 
1863 1866 1869 1872 1875 1878 1881 1884 1887 
1890 1893 1896 1899 1902 1905 1908 1911 1914 
1917 1920 1923 1926 1929 1932 1935 1938 1941 
1944 1947 1950 1953 1956 1959 1962 1965 1968 
1971 1974 1977 1980 1983 1986 1989 1992 1995 
1998 2001 2004 2007 2010 2013 2016 2019 2022 
2025 2028 2031 2034 2037 2040 2043 2046 2049 
2052 2055 2058 2061 2064 2067 2070 2073 2076 
2079 2082 2085 2088 2091 2094 2097 2100 2103 
2106 2109 2112 2115 2118 2121 2124 2127 2130 
2133 2136 2139 2142 2145 2148 2151 2154 2157 
2160 2163 2166 2169 2172 2175 2178 2181 2184 
2187 2190 2193 2196 2199 2202 2205 2208 2211 
2214 2217 2220 2223 2226 2229 2232 2235 2238 
2241 2244 2247 2250 2253 2256 2259 2262 2265 
2268 2271 2274 2277 2280 2283 2286 2289 2292 
2295 2298 2301 2304 2307 2310 2313 2316 2319 
2322 2325 2328 2331 2334 2337 2340 2343 2346 
2349 2352 2355 2358 2361 2364 2367 2370 2373 
2376 2379 2382 2385 2388 2391 2394 2397 2400 
2403 2406 2409 2412 2415 2418 2421 2424 2427 
2430 2433 2436 2439 2442 2445 2448 2451 2454 
2457 2460 2463 2466 2469 2472 2475 2478 2481 
2484 2487 2490 2493 2496 2499 2502 2505 2508 
2511 2514 2517 2520 2523 2526 2529 2532 2535 
2538 2541 2544 2547 2550 2553 2556 2559 2562 
2565 2568 2571 2574 2577 2580 2583 2586 2589 
2592 2595 2598 2601 2604 2607 2610 2613 2616 
2619 2622 2625 2628 2631 2634 2637 2640 2643 
2646 2649 2652 2655 2658 2661 2664 2667 2670 
2673 2676 2679 2682 2685 2688 2691 2694 2697 
2700 2703 2706 2709 2712 2715 2718 2721 2724 
2727 2730 2733 2736 2739 2742 2745 2748 2751 
2754 2757 2760 2763 2766 2769 2772 2775 2778 
2781 2784 2787 2790 2793 2796 2799 2802 2805 
2808 2811 2814 2817 2820 2823 2826 2829 2832 
2835 2838 2841 2844 2847 2850 2853 2856 2859 
2862 2865 2868 2871 2874 2877 2880 2883 2886 
2889 2892 2895 2898 2901 2904 2907 2910 2913 
2916 2919 2922 2925 2928 2931 2934 2937 2940 
2943 2946 2949 2952 2955 2958 2961 2964 2967 
2970 2973 2976 2979 2982 2985 2988 2991 2994 
2997 3000 3003 3006 3009 3012 3015 3018 3021 
3024 3027 3030 3033 3036 3039 3042 3045 3048 
3051 3054 3057 3060 3063 3066 3069 3072 3075 
3078 3081 3084 3087 3090 3093 3096 3099 3102 
3105 3108 3111 3114 3117 3120 3123 3126 3129 
3132 3135 3138 3141 3144 3147 3150 3153 3156 
3159 3162 3165 3168 3171 3174 3177 3180 3183 
3186 3189 3192 3195 3198 3201 3204 3207 3210 
3213 3216 3219 3222 3225 3228 3231 3234 3237 
3240 3243 3246 3249 3252 3255 3258 3261 3264 
3267 3270 3273 3276 3279 3282 3285 3288 3291 
3294 3297 3300 3303 3306 3309 3312 3315 3318 
3321 3324 3327 3330 3333 3336 3339 3342 3345 
3348 3351 3354 3357 3360 3363 3366 3369 3372 
3375 3378 3381 3384 3387 3390 3393 3396 3399 
3402 3405 3408 3411 3414 3417 3420 3423 3426 
3429 3432 3435 3438 3441 3444 3447 3450 3453 
3456 3459 3462 3465 3468 3471 3474 3477 3480 
3483 3486 3489 3492 3495 3498 3501 3504 3507 
3510 3513 3516 3519 3522 3525 3528 3531 3534 
3537 3540 3543 3546 3549 3552 3555 3558 3561 
3564 3567 3570 3573 3576 3579 3582 3585 3588 
3591 3594 3597 3600 3603 3606 3609 3612 3615 
3618 3621 3624 3627 3630 3633 3636 3639 3642 
3645 3648 3651 3654 3657 3660 3663 3666 3669 
3672 3675 3678 3681 3684 3687 3690 3693 3696 
3699 3702 3705 3708 3711 3714 3717 3720 3723 
3726 3729 3732 3735 3738 3741 3744 3747 3750 
3753 3756 3759 3762 3765 3768 3771 3774 3777 
3780 3783 3786 3789 3792 3795 3798 3801 3804 
3807 3810 3813 3816 3819 3822 3825 3828 3831 
3834 3837 3840 3843 3846 3849 3852 3855 3858 
3861 3864 3867 3870 3873 3876 3879 3882 3885 
3888 3891 3894 3897 3900 3903 3906 3909 3912 
3915 3918 3921 3924 3927 3930 3933 3936 3939 
3942 3945 3948 3951 3954 3957 3960 3963 3966 
3969 3972 3975 3978 3981 3984 3987 3990 3993 
3996 3999 4002 4005 4008 4011 4014 4017 4020 
4023 4026 4029 4032 4035 4038 4041 4044 4047 
4050 4053 4056 4059 4062 4065 4068 4071 4074 
4077 4080 4083 4086 4089 4092 4095 4098 4101 
4104 4107 4110 4113 4116 4119 4122 4125 4128 
4131 4134 4137 4140 4143 4146 4149 4152 4155 
4158 4161 4164 4167 4170 4173 4176 4179 4182 
4185 4188 4191 4194 4197 4200 4203 4206 4209 
4212 4215 4218 4221 4224 4227 4230 4233 4236 
4239 4242 4245 4248 4251 4254 4257 4260 4263 
4266 4269 4272 4275 4278 4281 4284 4287 4290 
4293 4296 4299 4302 4305 4308 4311 4314 4317 
4320 4323 4326 4329 4332 4335 4338 4341 4344 
4347 4350 4353 4356 4359 4362 4365 4368 4371 
4374 4377 4380 4383 4386 4389 4392 4395 4398 
4401 4404 4407 4410 4413 4416 4419 4422 4425 
4428 4431 4434 4437 4440 4443 4446 4449 4452 
4455 4458 4461 4464 4467 4470 4473 4476 4479 
4482 4485 4488 4491 4494 4497 4500 4503 4506 
4509 4512 4515 4518 4521 4524 4527 4530 4533 
4536 4539 4542 4545 4548 4551 4554 4557 4560 
4563 4566 4569 4572 4575 4578 4581 4584 4587 
4590 4593 4596 4599 4602 4605 4608 4611 4614 
4617 4620 4623 4626 4629 4632 4635 4638 4641 
4644 4647 4650 4653 4656 4659 4662 4665 4668 
4671 4674 4677 4680 4683 4686 4689 4692 4695 
4698 4701 4704 4707 4710 4713 4716 4719 4722 
4725 4728 4731 4734 4737 4740 4743 4746 4749 
4752 4755 4758 4761 4764 4767 4770 4773 4776 
4779 4782 4785 4788 4791 4794 4797 4800 4803 
4806 4809 4812 4815 4818 4821 4824 4827 4830 
4833 4836 4839 4842 4845 4848 4851 4854 4857 
4860 4863 4866 4869 4872 4875 4878 4881 4884 
4887 4890 4893 4896 4899 4902 4905 4908 4911 
4914 4917 4920 4923 4926 4929 4932 4935 4938 
4941 4944 4947 4950 4953 4956 4959 4962 4965 
4968 4971 4974 4977 4980 4983 4986 4989 4992 
4995 4998 5001 5004 5007 5010 5013 5016 5019 
5022 5025 5028 5031 5034 5037 5040 5043 5046 
5049 5052 5055 5058 5061 5064 5067 5070 5073 
5076 5079 5082 5085 5088 5091 5094 5097 5100 
5103 5106 5109 5112 5115 5118 5121 5124 5127 
5130 5133 5136 5139 5142 5145 5148 5151 5154 
5157 5160 5163 5166 5169 5172 5175 5178 5181 
5184 5187 5190 5193 5196 5199 5202 5205 5208 
5211 5214 5217 5220 5223 5226 5229 5232 5235 
5238 5241 5244 5247 5250 5253 5256 5259 5262 
5265 5268 5271 5274 5277 5280 5283 5286 5289 
5292 5295 5298 5301 5304 5307 5310 5313 5316 
5319 5322 5325 5328 5331 5334 5337 5340 5343 
5346 5349 5352 5355 5358 5361 5364 5367 5370 
5373 5376 5379 5382 5385 5388 5391 5394 5397 
5400 5403 5406 5409 5412 5415 5418 5421 5424 
5427 5430 5433 5436 5439 5442 5445 5448 5451 
5454 5457 5460 5463 5466 5469 5472 5475 5478 
5481 5484 5487 5490 5493 5496 5499 5502 5505 
5508 5511 5514 5517 5520 5523 5526 5529 5532 
5535 5538 5541 5544 5547 5550 5553 5556 5559 
5562 5565 5568 5571 5574 5577 5580 5583 5586 
5589 5592 5595 5598 5601 5604 5607 5610 5613 
5616 5619 5622 5625 5628 5631 5634 5637 5640 
5643 5646 5649 5652 5655 5658 5661 5664 5667 
5670 5673 5676 5679 5682 5685 5688 5691 5694 
5697 5700 5703 5706 5709 5712 5715 5718 5721 
5724 5727 5730 5733 5736 5739 5742 5745 5748 
5751 5754 5757 5760 5763 5766 5769 5772 5775 
5778 5781 5784 5787 5790 5793 5796 5799 5802 
5805 5808 5811 5814 5817 5820 5823 5826 5829 
5832 5835 5838 5841 5844 5847 5850 5853 5856 
5859 5862 5865 5868 5871 5874 5877 5880 5883 
5886 5889 5892 5895 5898 5901 5904 5907 5910 
5913 5916 5919 5922 5925 5928 5931 5934 5937 
5940 5943 5946 5949 5952 5955 5958 5961 5964 
5967 5970 5973 5976 5979 5982 5985 5988 5991 
5994 5997 6000 6003 6006 6009 6012 6015 6018 
6021 6024 6027 6030 6033 6036 6039 6042 6045 
6048 6051 6054 6057 6060 6063 6066 6069 6072 
6075 6078 6081 6084 6087 6090 6093 6096 6099 
6102 6105 6108 6111 6114 6117 6120 6123 6126 
6129 6132 6135 6138 6141 6144 6147 6150 6153 
6156 6159 6162 6165 6168 6171 6174 6177 6180 
6183 6186 6189 6192 6195 6198 6201 6204 6207 
6210 6213 6216 6219 6222 6225 6228 6231 6234 
6237 6240 6243 6246 6249 6252 6255 6258 6261 
6264 6267 6270 6273 6276 6279 6282 6285 6288 
6291 6294 6297 6300 6303 6306 6309 6312 6315 
6318 6321 6324 6327 6330 6333 6336 6339 6342 
6345 6348 6351 6354 6357 6360 6363 6366 6369 
6372 6375 6378 6381 6384 6387 6390 6393 6396 
6399 6402 6405 6408 6411 6414 6417 6420 6423 
6426 6429 6432 6435 6438 6441 6444 6447 6450 
6453 6456 6459 6462 6465 6468 6471 6474 6477 
6480 6483 6486 6489 6492 6495 6498 6501 6504 
6507 6510 6513 6516 6519 6522 6525 6528 6531 
6534 6537 6540 6543 6546 6549 6552 6555 6558 
6561 6564 6567 6570 6573 6576 6579 6582 6585 
6588 6591 6594 6597 6600 6603 6606 6609 6612 
6615 6618 6621 6624 6627 6630 6633 6636 6639 
6642 6645 6648 6651 6654 6657 6660 6663 6666 
6669 6672 6675 6678 6681 6684 6687 6690 6693 
6696 6699 6702 6705 6708 6711 6714 6717 6720 
6723 6726 6729 6732 6735 6738 6741 6744 6747 
6750 6753 6756 6759 6762 6765 6768 6771 6774 
6777 6780 6783 6786 6789 6792 6795 6798 6801 
6804 6807 6810 6813 6816 6819 6822 6825 6828 
6831 6834 6837 6840 6843 6846 6849 6852 6855 
6858 6861 6864 6867 6870 6873 6876 6879 6882 
6885 6888 6891 6894 6897 6900 6903 6906 6909 
6912 6915 6918 6921 6924 6927 6930 6933 6936 
6939 6942 6945 6948 6951 6954 6957 6960 6963 
6966 6969 6972 6975 6978 6981 6984 6987 6990 
6993 6996 6999 7002 7005 7008 7011 7014 7017 
7020 7023 7026 7029 7032 7035 7038 7041 7044 
7047 7050 7053 7056 7059 7062 7065 7068 7071 
7074 7077 7080 7083 7086 7089 7092 7095 7098 
7101 7104 7107 7110 7113 7116 7119 7122 7125 
7128 7131 7134 7137 7140 7143 7146 7149 7152 
7155 7158 7161 7164 7167 7170 7173 7176 7179 
7182 7185 7188 7191 7194 7197 7200 7203 7206 
7209 7212 7215 7218 7221 7224 7227 7230 7233 
7236 7239 7242 7245 7248 7251 7254 7257 7260 
7263 7266 7269 7272 7275 7278 7281 7284 7287 
7290 7293 7296 7299 7302 7305 7308 7311 7314 
7317 7320 7323 7326 7329 7332 7335 7338 7341 
7344 7347 7350 7353 7356 7359 7362 7365 7368 
7371 7374 7377 7380 7383 7386 7389 7392 7395 
7398 7401 7404 7407 7410 7413 7416 7419 7422 
7425 7428 7431 7434 7437 7440 7443 7446 7449 
7452 7455 7458 7461 7464 7467 7470 7473 7476 
7479 7482 7485 7488 7491 7494 7497 7500 7503 
7506 7509 7512 7515 7518 7521 7524 7527 7530 
7533 7536 7539 7542 7545 7548 7551 7554 7557 
7560 7563 7566 7569 7572 7575 7578 7581 7584 
7587 7590 7593 7596 7599 7602 7605 7608 7611 
7614 7617 7620 7623 7626 7629 7632 7635 7638 
7641 7644 7647 7650 7653 7656 7659 7662 7665 
7668 7671 7674 7677 7680 7683 7686 7689 7692 
7695 7698 7701 7704 7707 7710 7713 7716 7719 
7722 7725 7728 7731 7734 7737 7740 7743 7746 
7749 7752 7755 7758 7761 7764 7767 7770 7773 
7776 7779 7782 7785 7788 7791 7794 7797 7800 
7803 7806 7809 7812 7815 7818 7821 7824 7827 
7830 7833 7836 7839 7842 7845 7848 7851 7854 
7857 7860 7863 7866 7869 7872 7875 7878 7881 
7884 7887 7890 7893 7896 7899 7902 7905 7908 
7911 7914 7917 7920 7923 7926 7929 7932 7935 
7938 7941 7944 7947 7950 7953 7956 7959 7962 
7965 7968 7971 7974 7977 7980 7983 7986 7989 
7992 7995 7998 8001 8004 8007 8010 8013 8016 
8019 8022 8025 8028 8031 8034 8037 8040 8043 
8046 8049 8052 8055 8058 8061 8064 8067 8070 
8073 8076 8079 8082 8085 8088 8091 8094 8097 
8100 8103 8106 8109 8112 8115 8118 8121 8124 
8127 8130 8133 8136 8139 8142 8145 8148 8151 
8154 8157 8160 8163 8166 8169 8172 8175 8178 
8181 8184 8187 8190 8193 8196 8199 8202 8205 
8208 8211 8214 8217 8220 8223 8226 8229 8232 
8235 8238 8241 8244 8247 8250 8253 8256 8259 
8262 8265 8268 8271 8274 8277 8280 8283 8286 
8289 8292 8295 8298 8301 8304 8307 8310 8313 
8316 8319 8322 8325 8328 8331 8334 8337 8340 
8343 8346 8349 8352 8355 8358 8361 8364 8367 
8370 8373 8376 8379 8382 8385 8388 8391 8394 
8397 8400 8403 8406 8409 8412 8415 8418 8421 
8424 8427 8430 8433 8436 8439 8442 8445 8448 
8451 8454 8457 8460 8463 8466 8469 8472 8475 
8478 8481 8484 8487 8490 8493 8496 8499 8502 
8505 8508 8511 8514 8517 8520 8523 8526 8529 
8532 8535 8538 8541 8544 8547 8550 8553 8556 
8559 8562 8565 8568 8571 8574 8577 8580 8583 
8586 8589 8592 8595 8598 8601 8604 8607 8610 
8613 8616 8619 8622 8625 8628 8631 8634 8637 
8640 8643 8646 8649 8652 8655 8658 8661 8664 
8667 8670 8673 8676 8679 8682 8685 8688 8691 
8694 8697 8700 8703 8706 8709 8712 8715 8718 
8721 8724 8727 8730 8733 8736 8739 8742 8745 
8748 8751 8754 8757 8760 8763 8766 8769 8772 
8775 8778 8781 8784 8787 8790 8793 8796 8799 
8802 8805 8808 8811 8814 8817 8820 8823 8826 
8829 8832 8835 8838 8841 8844 8847 8850 8853 
8856 8859 8862 8865 8868 8871 8874 8877 8880 
8883 8886 8889 8892 8895 8898 8901 8904 8907 
8910 8913 8916 8919 8922 8925 8928 8931 8934 
8937 8940 8943 8946 8949 8952 8955 8958 8961 
8964 8967 8970 8973 8976 8979 8982 8985 8988 
8991 8994 8997 9000 9003 9006 9009 9012 9015 
9018 9021 9024 9027 9030 9033 9036 9039 9042 
9045 9048 9051 9054 9057 9060 9063 9066 9069 
9072 9075 9078 9081 9084 9087 9090 9093 9096 
9099 9102 9105 9108 9111 9114 9117 9120 9123 
9126 9129 9132 9135 9138 9141 9144 9147 9150 
9153 9156 9159 9162 9165 9168 9171 9174 9177 
9180 9183 9186 9189 9192 9195 9198 9201 9204 
9207 9210 9213 9216 9219 9222 9225 9228 9231 
9234 9237 9240 9243 9246 9249 9252 9255 9258 
9261 9264 9267 9270 9273 9276 9279 9282 9285 
9288 9291 9294 9297 9300 9303 9306 9309 9312 
9315 9318 9321 9324 9327 9330 9333 9336 9339 
9342 9345 9348 9351 9354 9357 9360 9363 9366 
9369 9372 9375 9378 9381 9384 9387 9390 9393 
9396 9399 9402 9405 9408 9411 9414 9417 9420 
9423 9426 9429 9432 9435 9438 9441 9444 9447 
9450 9453 9456 9459 9462 9465 9468 9471 9474 
9477 9480 9483 9486 9489 9492 9495 9498 9501 
9504 9507 9510 9513 9516 9519 9522 9525 9528 
9531 9534 9537 9540 9543 9546 9549 9552 9555 
9558 9561 9564 9567 9570 9573 9576 9579 9582 
9585 9588 9591 9594 9597 9600 9603 9606 9609 
9612 9615 9618 9621 9624 9627 9630 9633 9636 
9639 9642 9645 9648 9651 9654 9657 9660 9663 
9666 9669 9672 9675 9678 9681 9684 9687 9690 
9693 9696 9699 9702 9705 9708 9711 9714 9717 
9720 9723 9726 9729 9732 9735 9738 9741 9744 
9747 9750 9753 9756 9759 9762 9765 9768 9771 
9774 9777 9780 9783 9786 9789 9792 9795 9798 
9801 9804 9807 9810 9813 9816 9819 9822 9825 
9828 9831 9834 9837 9840 9843 9846 9849 9852 
9855 9858 9861 9864 9867 9870 9873 9876 9879 
9882 9885 9888 9891 9894 9897 9900 9903 9906 
9909 9912 9915 9918 9921 9924 9927 9930 9933 
9936 9939 9942 9945 9948 9951 9954 9957 9960 
9963 9966 9969 9972 9975 9978 9981 9984 9987 
9990 9993 9996 9999 10002 10005 10008 10011 10014 
10017 10020 10023 10026 10029 10032 10035 10038 10041 
10044 10047 10050 10053 10056 10059 10062 10065 10068 
10071 10074 10077 10080 10083 10086 10089 10092 10095 
10098 10101 10104 10107 10110 10113 10116 10119 10122 
10125 10128 10131 10134 10137 10140 10143 10146 10149 
10152 10155 10158 10161 10164 10167 10170 10173 10176 
10179 10182 10185 10188 10191 10194 10197 10200 10203 
10206 10209 10212 10215 10218 10221 10224 10227 10230 
10233 10236 10239 10242 10245 10248 10251 10254 10257 
10260 10263 10266 10269 10272 10275 10278 10281 10284 
10287 10290 10293 10296 10299 10302 10305 10308 10311 
10314 10317 10320 10323 10326 10329 10332 10335 10338 
10341 10344 10347 10350 10353 10356 10359 10362 10365 
10368 10371 10374 10377 10380 10383 10386 10389 10392 
10395 10398 10401 10404 10407 10410 10413 10416 10419 
10422 10425 10428 10431 10434 10437 10440 10443 10446 
10449 10452 10455 10458 10461 10464 10467 10470 10473 
10476 10479 10482 10485 10488 10491 10494 10497 10500 
10503 10506 10509 10512 10515 10518 10521 10524 10527 
10530 10533 10536 10539 10542 10545 10548 10551 10554 
10557 10560 10563 10566 10569 10572 10575 10578 10581 
10584 10587 10590 10593 10596 10599 10602 10605 10608 
10611 10614 10617 10620 10623 10626 10629 10632 10635 
10638 10641 10644 10647 10650 10653 10656 10659 10662 
10665 10668 10671 10674 10677 10680 10683 10686 10689 
10692 10695 10698 10701 10704 10707 10710 10713 10716 
10719 10722 10725 10728 10731 10734 10737 10740 10743 
10746 10749 10752 10755 10758 10761 10764 10767 10770 
10773 10776 10779 10782 10785 10788 10791 10794 10797 
10800 10803 10806 10809 10812 10815 10818 10821 10824 
10827 10830 10833 10836 10839 10842 10845 10848 10851 
10854 10857 10860 10863 10866 10869 10872 10875 10878 
10881 10884 10887 10890 10893 10896 10899 10902 10905 
10908 10911 10914 10917 10920 10923 10926 10929 10932 
10935 10938 10941 10944 10947 10950 10953 10956 10959 
10962 10965 10968 10971 10974 10977 10980 10983 10986 
10989 10992 10995 10998 11001 11004 11007 11010 11013 
11016 11019 11022 11025 11028 11031 11034 11037 11040 
11043 11046 11049 11052 11055 11058 11061 11064 11067 
11070 11073 11076 11079 11082 11085 11088 11091 11094 
11097 11100 11103 11106 11109 11112 11115 11118 11121 
11124 11127 11130 11133 11136 11139 11142 11145 11148 
11151 11154 11157 11160 11163 11166 11169 11172 11175 
11178 11181 11184 11187 11190 11193 11196 11199 11202 
11205 11208 11211 11214 11217 11220 11223 11226 11229 
11232 11235 11238 11241 11244 11247 11250 11253 11256 
11259 11262 11265 11268 11271 11274 11277 11280 11283 
11286 11289 11292 11295 11298 11301 11304 11307 11310 
11313 11316 11319 11322 11325 11328 11331 11334 11337 
11340 11343 11346 11349 11352 11355 11358 11361 11364 
11367 11370 11373 11376 11379 11382 11385 11388 11391 
11394 11397 11400 11403 11406 11409 11412 11415 11418 
11421 11424 11427 11430 11433 11436 11439 11442 11445 
11448 11451 11454 11457 11460 11463 11466 11469 11472 
11475 11478 11481 11484 11487 11490 11493 11496 11499 
11502 11505 11508 11511 11514 11517 11520 11523 11526 
11529 11532 11535 11538 11541 11544 11547 11550 11553 
11556 11559 11562 11565 11568 11571 11574 11577 11580 
11583 11586 11589 11592 11595 11598 11601 11604 11607 
11610 11613 11616 11619 11622 11625 11628 11631 11634 
11637 11640 11643 11646 11649 11652 11655 11658 11661 
11664 11667 11670 11673 11676 11679 11682 11685 11688 
11691 11694 11697 11700 11703 11706 11709 11712 11715 
11718 11721 11724 11727 11730 11733 11736 11739 11742 
11745 11748 11751 11754 11757 11760 11763 11766 11769 
11772 11775 11778 11781 11784 11787 11790 11793 11796 
11799 11802 11805 11808 11811 11814 11817 11820 11823 
11826 11829 11832 11835 11838 11841 11844 11847 11850 
11853 11856 11859 11862 11865 11868 11871 11874 11877 
11880 11883 11886 11889 11892 11895 11898 11901 11904 
11907 11910 11913 11916 11919 11922 11925 11928 11931 
11934 11937 11940 11943 11946 11949 11952 11955 11958 
11961 11964 11967 11970 11973 11976 11979 11982 11985 
11988 11991 11994 11997 12000 12003 12006 12009 12012 
12015 12018 12021 12024 12027 12030 12033 12036 12039 
12042 12045 12048 12051 12054 12057 12060 12063 12066 
12069 12072 12075 12078 12081 12084 12087 12090 12093 
12096 12099 12102 12105 12108 12111 12114 12117 12120 
12123 12126 12129 12132 12135 12138 12141 12144 12147 
12150 12153 12156 12159 12162 12165 12168 12171 12174 
12177 12180 12183 12186 12189 12192 12195 12198 12201 
12204 12207 12210 12213 12216 12219 12222 12225 12228 
12231 12234 12237 12240 12243 12246 12249 12252 12255 
12258 12261 12264 12267 12270 12273 12276 12279 12282 
12285 12288 12291 12294 12297 12300 12303 12306 12309 
12312 12315 12318 12321 12324 12327 12330 12333 12336 
12339 12342 12345 12348 12351 12354 12357 12360 12363 
12366 12369 12372 12375 12378 12381 12384 12387 12390 
12393 12396 12399 12402 12405 12408 12411 12414 12417 
12420 12423 12426 12429 12432 12435 12438 12441 12444 
12447 12450 12453 12456 12459 12462 12465 12468 12471 
12474 12477 12480 12483 12486 12489 12492 12495 12498 
12501 12504 12507 12510 12513 12516 12519 12522 12525 
12528 12531 12534 12537 12540 12543 12546 12549 12552 
12555 12558 12561 12564 12567 12570 12573 12576 12579 
12582 12585 12588 12591 12594 12597 12600 12603 12606 
12609 12612 12615 12618 12621 12624 12627 12630 12633 
12636 12639 12642 12645 12648 12651 12654 12657 12660 
12663 12666 12669 12672 12675 12678 12681 12684 12687 
12690 12693 12696 12699 12702 12705 12708 12711 12714 
12717 12720 12723 12726 12729 12732 12735 12738 12741 
12744 12747 12750 12753 12756 12759 12762 12765 12768 
12771 12774 12777 12780 12783 12786 12789 12792 12795 
12798 12801 12804 12807 12810 12813 12816 12819 12822 
12825 12828 12831 12834 12837 12840 12843 12846 12849 
12852 12855 12858 12861 12864 12867 12870 12873 12876 
12879 12882 12885 12888 12891 12894 12897 12900 12903 
12906 12909 12912 12915 12918 12921 12924 12927 12930 
12933 12936 12939 12942 12945 12948 12951 12954 12957 
12960 12963 12966 12969 12972 12975 12978 12981 12984 
12987 12990 12993 12996 12999 13002 13005 13008 13011 
13014 13017 13020 13023 13026 13029 13032 13035 13038 
13041 13044 13047 13050 13053 13056 13059 13062 13065 
13068 13071 13074 13077 13080 13083 13086 13089 13092 
13095 13098 13101 13104 13107 13110 13113 13116 13119 
13122 13125 13128 13131 13134 13137 13140 13143 13146 
13149 13152 13155 13158 13161 13164 13167 13170 13173 
13176 13179 13182 13185 13188 13191 13194 13197 13200 
13203 13206 13209 13212 13215 13218 13221 13224 13227 
13230 13233 13236 13239 13242 13245 13248 13251 13254 
13257 13260 13263 13266 13269 13272 13275 13278 13281 
13284 13287 13290 13293 13296 13299 13302 13305 13308 
13311 13314 13317 13320 13323 13326 13329 13332 13335 
13338 13341 13344 13347 13350 13353 13356 13359 13362 
13365 13368 13371 13374 13377 13380 13383 13386 13389 
13392 13395 13398 13401 13404 13407 13410 13413 13416 
13419 13422 13425 13428 13431 13434 13437 13440 13443 
13446 13449 13452 13455 13458 13461 13464 13467 13470 
13473 13476 13479 13482 13485 13488 13491 13494 13497 
13500 13503 13506 13509 13512 13515 13518 13521 13524 
13527 13530 13533 13536 13539 13542 13545 13548 13551 
13554 13557 13560 13563 13566 13569 13572 13575 13578 
13581 13584 13587 13590 13593 13596 13599 13602 13605 
13608 13611 13614 13617 13620 13623 13626 13629 13632 
13635 13638 13641 13644 13647 13650 13653 13656 13659 
13662 13665 13668 13671 13674 13677 13680 13683 13686 
13689 13692 13695 13698 13701 13704 13707 13710 13713 
13716 13719 13722 13725 13728 13731 13734 13737 13740 
13743 13746 13749 13752 13755 13758 13761 13764 13767 
13770 13773 13776 13779 13782 13785 13788 13791 13794 
13797 13800 13803 13806 13809 13812 13815 13818 13821 
13824 13827 13830 13833 13836 13839 13842 13845 13848 
13851 13854 13857 13860 13863 13866 13869 13872 13875 
13878 13881 13884 13887 13890 13893 13896 13899 13902 
13905 13908 13911 13914 13917 13920 13923 13926 13929 
13932 13935 13938 13941 13944 13947 13950 13953 13956 
13959 13962 13965 13968 13971 13974 13977 13980 13983 
13986 13989 13992 13995 13998 14001 14004 14007 14010 
14013 14016 14019 14022 14025 14028 14031 14034 14037 
14040 14043 14046 14049 14052 14055 14058 14061 14064 
14067 14070 14073 14076 14079 14082 14085 14088 14091 
14094 14097 14100 14103 14106 14109 14112 14115 14118 
14121 14124 14127 14130 14133 14136 14139 14142 14145 
14148 14151 14154 14157 14160 14163 14166 14169 14172 
14175 14178 14181 14184 14187 14190 14193 14196 14199 
14202 14205 14208 14211 14214 14217 14220 14223 14226 
14229 14232 14235 14238 14241 14244 14247 14250 14253 
14256 14259 14262 14265 14268 14271 14274 14277 14280 
14283 14286 14289 14292 14295 14298 14301 14304 14307 
14310 14313 14316 14319 14322 14325 14328 14331 14334 
14337 14340 14343 14346 14349 14352 14355 14358 14361 
14364 14367 14370 14373 14376 14379 14382 14385 14388 
14391 14394 14397 14400 14403 14406 14409 14412 14415 
14418 14421 14424 14427 14430 14433 14436 14439 14442 
14445 14448 14451 14454 14457 14460 14463 14466 14469 
14472 14475 14478 14481 14484 14487 14490 14493 14496 
14499 14502 14505 14508 14511 14514 14517 14520 14523 
14526 14529 14532 14535 14538 14541 14544 14547 14550 
14553 14556 14559 14562 14565 14568 14571 14574 14577 
14580 14583 14586 14589 14592 14595 14598 14601 14604 
14607 14610 14613 14616 14619 14622 14625 14628 14631 
14634 14637 14640 14643 14646 14649 14652 14655 14658 
14661 14664 14667 14670 14673 14676 14679 14682 14685 
14688 14691 14694 14697 14700 14703 14706 14709 14712 
14715 14718 14721 14724 14727 14730 14733 14736 14739 
14742 14745 14748 14751 14754 14757 14760 14763 14766 
14769 14772 14775 14778 14781 14784 14787 14790 14793 
14796 14799 14802 14805 14808 14811 14814 14817 14820 
14823 14826 14829 14832 14835 14838 14841 14844 14847 
14850 14853 14856 14859 14862 14865 14868 14871 14874 
14877 14880 14883 14886 14889 14892 14895 14898 14901 
14904 14907 14910 14913 14916 14919 14922 14925 14928 
14931 14934 14937 14940 14943 14946 14949 14952 14955 
14958 14961 14964 14967 14970 14973 14976 14979 14982 
14985 14988 14991 14994 14997 15000 15003 15006 15009 
15012 15015 15018 15021 15024 15027 15030 15033 15036 
15039 15042 15045 15048 15051 15054 15057 15060 15063 
15066 15069 15072 15075 15078 15081 15084 15087 15090 
15093 15096 15099 15102 15105 15108 15111 15114 15117 
15120 15123 15126 15129 15132 15135 15138 15141 15144 
15147 15150 15153 15156 15159 15162 15165 15168 15171 
15174 15177 15180 15183 15186 15189 15192 15195 15198 
15201 15204 15207 15210 15213 15216 15219 15222 15225 
15228 15231 15234 15237 15240 15243 15246 15249 15252 
15255 15258 15261 15264 15267 15270 15273 15276 15279 
15282 15285 15288 15291 15294 15297 15300 15303 15306 
15309 15312 15315 15318 15321 15324 15327 15330 15333 
15336 15339 15342 15345 15348 15351 15354 15357 15360 
15363 15366 15369 15372 15375 15378 15381 15384 15387 
15390 15393 15396 15399 15402 15405 15408 15411 15414 
15417 15420 15423 15426 15429 15432 15435 15438 15441 
15444 15447 15450 15453 15456 15459 15462 15465 15468 
15471 15474 15477 15480 15483 15486 15489 15492 15495 
15498 15501 15504 15507 15510 15513 15516 15519 15522 
15525 15528 15531 15534 15537 15540 15543 15546 15549 
15552 15555 15558 15561 15564 15567 15570 15573 15576 
15579 15582 15585 15588 15591 15594 15597 15600 15603 
15606 15609 15612 15615 15618 15621 15624 15627 15630 
15633 15636 15639 15642 15645 15648 15651 15654 15657 
15660 15663 15666 15669 15672 15675 15678 15681 15684 
15687 15690 15693 15696 15699 15702 15705 15708 15711 
15714 15717 15720 15723 15726 15729 15732 15735 15738 
15741 15744 15747 15750 15753 15756 15759 15762 15765 
15768 15771 15774 15777 15780 15783 15786 15789 15792 
15795 15798 15801 15804 15807 15810 15813 15816 15819 
15822 15825 15828 15831 15834 15837 15840 15843 15846 
15849 15852 15855 15858 15861 15864 15867 15870 15873 
15876 15879 15882 15885 15888 15891 15894 15897 15900 
15903 15906 15909 15912 15915 15918 15921 15924 15927 
15930 15933 15936 15939 15942 15945 15948 15951 15954 
15957 15960 15963 15966 15969 15972 15975 15978 15981 
15984 15987 15990 15993 15996 15999 16002 16005 16008 
16011 16014 16017 16020 16023 16026 16029 16032 16035 
16038 16041 16044 16047 16050 16053 16056 16059 16062 
16065 16068 16071 16074 16077 16080 16083 16086 16089 
16092 16095 16098 16101 16104 16107 16110 16113 16116 
16119 16122 16125 16128 16131 16134 16137 16140 16143 
16146 16149 16152 16155 16158 16161 16164 16167 16170 
16173 16176 16179 16182 16185 16188 16191 16194 16197 
16200 16203 16206 16209 16212 16215 16218 16221 16224 
16227 16230 16233 16236 16239 16242 16245 16248 16251 
16254 16257 16260 16263 16266 16269 16272 16275 16278 
16281 16284 16287 16290 16293 16296 16299 16302 16305 
16308 16311 16314 16317 16320 16323 16326 16329 16332 
16335 16338 16341 16344 16347 16350 16353 16356 16359 
16362 16365 16368 16371 16374 16377 16380 16383 16386 
16389 16392 16395 16398 16401 16404 16407 16410 16413 
16416 16419 16422 16425 16428 16431 16434 16437 16440 
16443 16446 16449 16452 16455 16458 16461 16464 16467 
16470 16473 16476 16479 16482 16485 16488 16491 16494 
16497 16500 16503 16506 16509 16512 16515 16518 16521 
16524 16527 16530 16533 16536 16539 16542 16545 16548 
16551 16554 16557 16560 16563 16566 16569 16572 16575 
16578 16581 16584 16587 16590 16593 16596 16599 16602 
16605 16608 16611 16614 16617 16620 16623 16626 16629 
16632 16635 16638 16641 16644 16647 16650 16653 16656 
16659 16662 16665 16668 16671 16674 16677 16680 16683 
16686 16689 16692 16695 16698 16701 16704 16707 16710 
16713 16716 16719 16722 16725 16728 16731 16734 16737 
16740 16743 16746 16749 16752 16755 16758 16761 16764 
16767 16770 16773 16776 16779 16782 16785 16788 16791 
16794 16797 16800 16803 16806 16809 16812 16815 16818 
16821 16824 16827 16830 16833 16836 16839 16842 16845 
16848 16851 16854 16857 16860 16863 16866 16869 16872 
16875 16878 16881 16884 16887 16890 16893 16896 16899 
16902 16905 16908 16911 16914 16917 16920 16923 16926 
16929 16932 16935 16938 16941 16944 16947 16950 16953 
16956 16959 16962 16965 16968 16971 16974 16977 16980 
16983 16986 16989 16992 16995 16998 17001 17004 17007 
17010 17013 17016 17019 17022 17025 17028 17031 17034 
17037 17040 17043 17046 17049 17052 17055 17058 17061 
17064 17067 17070 17073 17076 17079 17082 17085 17088 
17091 17094 17097 17100 17103 17106 17109 17112 17115 
17118 17121 17124 17127 17130 17133 17136 17139 17142 
17145 17148 17151 17154 17157 17160 17163 17166 17169 
17172 17175 17178 17181 17184 17187 17190 17193 17196 
17199 17202 17205 17208 17211 17214 17217 17220 17223 
17226 17229 17232 17235 17238 17241 17244 17247 17250 
17253 17256 17259 17262 17265 17268 17271 17274 17277 
17280 17283 17286 17289 17292 17295 17298 17301 17304 
17307 17310 17313 17316 17319 17322 17325 17328 17331 
17334 17337 17340 17343 17346 17349 17352 17355 17358 
17361 17364 17367 17370 17373 17376 17379 17382 17385 
17388 17391 17394 17397 17400 17403 17406 17409 17412 
17415 17418 17421 17424 17427 17430 17433 17436 17439 
17442 17445 17448 17451 17454 17457 17460 17463 17466 
17469 17472 17475 17478 17481 17484 17487 17490 17493 
17496 17499 17502 17505 17508 17511 17514 17517 17520 
17523 17526 17529 17532 17535 17538 17541 17544 17547 
17550 17553 17556 17559 17562 17565 17568 17571 17574 
17577 17580 17583 17586 17589 17592 17595 17598 17601 
17604 17607 17610 17613 17616 17619 17622 17625 17628 
17631 17634 17637 17640 17643 17646 17649 17652 17655 
17658 17661 17664 17667 17670 17673 17676 17679 17682 
17685 17688 17691 17694 17697 17700 17703 17706 17709 
17712 17715 17718 17721 17724 17727 17730 17733 17736 
17739 17742 17745 17748 17751 17754 17757 17760 17763 
17766 17769 17772 17775 17778 17781 17784 17787 17790 
17793 17796 17799 17802 17805 17808 17811 17814 17817 
17820 17823 17826 17829 17832 17835 17838 17841 17844 
17847 17850 17853 17856 17859 17862 17865 17868 17871 
17874 17877 17880 17883 17886 17889 17892 17895 17898 
17901 17904 17907 17910 17913 17916 17919 17922 17925 
17928 17931 17934 17937 17940 17943 17946 17949 17952 
17955 17958 17961 17964 17967 17970 17973 17976 17979 
17982 17985 17988 17991 17994 17997 18000 18003 18006 
18009 18012 18015 18018 18021 18024 18027 18030 18033 
18036 18039 18042 18045 18048 18051 18054 18057 18060 
18063 18066 18069 18072 18075 18078 18081 18084 18087 
18090 18093 18096 18099 18102 18105 18108 18111 18114 
18117 18120 18123 18126 18129 18132 18135 18138 18141 
18144 18147 18150 18153 18156 18159 18162 18165 18168 
18171 18174 18177 18180 18183 18186 18189 18192 18195 
18198 18201 18204 18207 18210 18213 18216 18219 18222 
18225 18228 18231 18234 18237 18240 18243 18246 18249 
18252 18255 18258 18261 18264 18267 18270 18273 18276 
18279 18282 18285 18288 18291 18294 18297 18300 18303 
18306 18309 18312 18315 18318 18321 18324 18327 18330 
18333 18336 18339 18342 18345 18348 18351 18354 18357 
18360 18363 18366 18369 18372 18375 18378 18381 18384 
18387 18390 18393 18396 18399 18402 18405 18408 18411 
18414 18417 18420 18423 18426 18429 18432 18435 18438 
18441 18444 18447 18450 18453 18456 18459 18462 18465 
18468 18471 18474 18477 18480 18483 18486 18489 18492 
18495 18498 18501 18504 18507 18510 18513 18516 18519 
18522 18525 18528 18531 18534 18537 18540 18543 18546 
18549 18552 18555 18558 18561 18564 18567 18570 18573 
18576 18579 18582 18585 18588 18591 18594 18597 18600 
18603 18606 18609 18612 18615 18618 18621 18624 18627 
18630 18633 18636 18639 18642 18645 18648 18651 18654 
18657 18660 18663 18666 18669 18672 18675 18678 18681 
18684 18687 18690 18693 18696 18699 18702 18705 18708 
18711 18714 18717 18720 18723 18726 18729 18732 18735 
18738 18741 18744 18747 18750 18753 18756 18759 18762 
18765 18768 18771 18774 18777 18780 18783 18786 18789 
18792 18795 18798 18801 18804 18807 18810 18813 18816 
18819 18822 18825 18828 18831 18834 18837 18840 18843 
18846 18849 18852 18855 18858 18861 18864 18867 18870 
18873 18876 18879 18882 18885 18888 18891 18894 18897 
18900 18903 18906 18909 18912 18915 18918 18921 18924 
18927 18930 18933 18936 18939 18942 18945 18948 18951 
18954 18957 18960 18963 18966 18969 18972 18975 18978 
18981 18984 18987 18990 18993 18996 18999 19002 19005 
19008 19011 19014 19017 19020 19023 19026 19029 19032 
19035 19038 19041 19044 19047 19050 19053 19056 19059 
19062 19065 19068 19071 19074 19077 19080 19083 19086 
19089 19092 19095 19098 19101 19104 19107 19110 19113 
19116 19119 19122 19125 19128 19131 19134 19137 19140 
19143 19146 19149 19152 19155 19158 19161 19164 19167 
19170 19173 19176 19179 19182 19185 19188 19191 19194 
19197 19200 19203 19206 19209 19212 19215 19218 19221 
19224 19227 19230 19233 19236 19239 19242 19245 19248 
19251 19254 19257 19260 19263 19266 19269 19272 19275 
19278 19281 19284 19287 19290 19293 19296 19299 19302 
19305 19308 19311 19314 19317 19320 19323 19326 19329 
19332 19335 19338 19341 19344 19347 19350 19353 19356 
19359 19362 19365 19368 19371 19374 19377 19380 19383 
19386 19389 19392 19395 19398 19401 19404 19407 19410 
19413 19416 19419 19422 19425 19428 19431 19434 19437 
19440 19443 19446 19449 19452 19455 19458 19461 19464 
19467 19470 19473 19476 19479 19482 19485 19488 19491 
19494 19497 19500 19503 19506 19509 19512 19515 19518 
19521 19524 19527 19530 19533 19536 19539 19542 19545 
19548 19551 19554 19557 19560 19563 19566 19569 19572 
19575 19578 19581 19584 19587 19590 19593 19596 19599 
19602 19605 19608 19611 19614 19617 19620 19623 19626 
19629 19632 19635 19638 19641 19644 19647 19650 19653 
19656 19659 19662 19665 19668 19671 19674 19677 19680 
19683 19686 19689 19692 19695 19698 19701 19704 19707 
19710 19713 19716 19719 19722 19725 19728 19731 19734 
19737 19740 19743 19746 19749 19752 19755 19758 19761 
19764 19767 19770 19773 19776 19779 19782 19785 19788 
19791 19794 19797 19800 19803 19806 19809 19812 19815 
19818 19821 19824 19827 19830 19833 19836 19839 19842 
19845 19848 19851 19854 19857 19860 19863 19866 19869 
19872 19875 19878 19881 19884 19887 19890 19893 19896 
19899 19902 19905 19908 19911 19914 19917 19920 19923 
19926 19929 19932 19935 19938 19941 19944 19947 19950 
19953 19956 19959 19962 19965 19968 19971 19974 19977 
19980 19983 19986 19989 19992 19995 19998 20001 20004 
20007 20010 20013 20016 20019 20022 20025 20028 20031 
20034 20037 20040 20043 20046 20049 20052 20055 20058 
20061 20064 20067 20070 20073 20076 20079 20082 20085 
20088 20091 20094 20097 20100 20103 20106 20109 20112 
20115 20118 20121 20124 20127 20130 20133 20136 20139 
20142 20145 20148 20151 20154 20157 20160 20163 20166 
20169 20172 20175 20178 20181 20184 20187 20190 20193 
20196 20199 20202 20205 20208 20211 20214 20217 20220 
20223 20226 20229 20232 20235 20238 20241 20244 20247 
20250 20253 20256 20259 20262 20265 20268 20271 20274 
20277 20280 20283 20286 20289 20292 20295 20298 20301 
20304 20307 20310 20313 20316 20319 20322 20325 20328 
20331 20334 20337 20340 20343 20346 20349 20352 20355 
20358 20361 20364 20367 20370 20373 20376 20379 20382 
20385 20388 20391 20394 20397 20400 20403 20406 20409 
20412 20415 20418 20421 20424 20427 20430 20433 20436 
20439 20442 20445 20448 20451 20454 20457 20460 20463 
20466 20469 20472 20475 20478 20481 20484 20487 20490 
20493 20496 20499 20502 20505 20508 20511 20514 20517 
20520 20523 20526 20529 20532 20535 20538 20541 20544 
20547 20550 20553 20556 20559 20562 20565 20568 20571 
20574 20577 20580 20583 20586 20589 20592 20595 20598 
20601 20604 20607 20610 20613 20616 20619 20622 20625 
20628 20631 20634 20637 20640 20643 20646 20649 20652 
20655 20658 20661 20664 20667 20670 20673 20676 20679 
20682 20685 20688 20691 20694 20697 20700 20703 20706 
20709 20712 20715 20718 20721 20724 20727 20730 20733 
20736 20739 20742 20745 20748 20751 20754 20757 20760 
20763 20766 20769 20772 20775 20778 20781 20784 20787 
20790 20793 20796 20799 20802 20805 20808 20811 20814 
20817 20820 20823 20826 20829 20832 20835 20838 20841 
20844 20847 20850 20853 20856 20859 20862 20865 20868 
20871 20874 20877 20880 20883 20886 20889 20892 20895 
20898 20901 20904 20907 20910 20913 20916 20919 20922 
20925 20928 20931 20934 20937 20940 20943 20946 20949 
20952 20955 20958 20961 20964 20967 20970 20973 20976 
20979 20982 20985 20988 20991 20994 20997 21000 21003 
21006 21009 21012 21015 21018 21021 21024 21027 21030 
21033 21036 21039 21042 21045 21048 21051 21054 21057 
21060 21063 21066 21069 21072 21075 21078 21081 21084 
21087 21090 21093 21096 21099 21102 21105 21108 21111 
21114 21117 21120 21123 21126 21129 21132 21135 21138 
21141 21144 21147 21150 21153 21156 21159 21162 21165 
21168 21171 21174 21177 21180 21183 21186 21189 21192 
21195 21198 21201 21204 21207 21210 21213 21216 21219 
21222 21225 21228 21231 21234 21237 21240 21243 21246 
21249 21252 21255 21258 21261 21264 21267 21270 21273 
21276 21279 21282 21285 21288 21291 21294 21297 21300 
21303 21306 21309 21312 21315 21318 21321 21324 21327 
21330 21333 21336 21339 21342 21345 21348 21351 21354 
21357 21360 21363 21366 21369 21372 21375 21378 21381 
21384 21387 21390 21393 21396 21399 21402 21405 21408 
21411 21414 21417 21420 21423 21426 21429 21432 21435 
21438 21441 21444 21447 21450 21453 21456 21459 21462 
21465 21468 21471 21474 21477 21480 21483 21486 21489 
21492 21495 21498 21501 21504 21507 21510 21513 21516 
21519 21522 21525 21528 21531 21534 21537 21540 21543 
21546 21549 21552 21555 21558 21561 21564 21567 21570 
21573 21576 21579 21582 21585 21588 21591 21594 21597 
21600 21603 21606 21609 21612 21615 21618 21621 21624 
21627 21630 21633 21636 21639 21642 21645 21648 21651 
21654 21657 21660 21663 21666 21669 21672 21675 21678 
21681 21684 21687 21690 21693 21696 21699 21702 21705 
21708 21711 21714 21717 21720 21723 21726 21729 21732 
21735 21738 21741 21744 21747 21750 21753 21756 21759 
21762 21765 21768 21771 21774 21777 21780 21783 21786 
21789 21792 21795 21798 21801 21804 21807 21810 21813 
21816 21819 21822 21825 21828 21831 21834 21837 21840 
21843 21846 21849 21852 21855 21858 21861 21864 21867 
21870 21873 21876 21879 21882 21885 21888 21891 21894 
21897 21900 21903 21906 21909 21912 21915 21918 21921 
21924 21927 21930 21933 21936 21939 21942 21945 21948 
21951 21954 21957 21960 21963 21966 21969 21972 21975 
21978 21981 21984 21987 21990 21993 21996 21999 22002 
22005 22008 22011 22014 22017 22020 22023 22026 22029 
22032 22035 22038 22041 22044 22047 22050 22053 22056 
22059 22062 22065 22068 22071 22074 22077 22080 22083 
22086 22089 22092 22095 22098 22101 22104 22107 22110 
22113 22116 22119 22122 22125 22128 22131 22134 22137 
22140 22143 22146 22149 22152 22155 22158 22161 22164 
22167 22170 22173 22176 22179 22182 22185 22188 22191 
22194 22197 22200 22203 22206 22209 22212 22215 22218 
22221 22224 22227 22230 22233 22236 22239 22242 22245 
22248 22251 22254 22257 22260 22263 22266 22269 22272 
22275 22278 22281 22284 22287 22290 22293 22296 22299 
22302 22305 22308 22311 22314 22317 22320 22323 22326 
22329 22332 22335 22338 22341 22344 22347 22350 22353 
22356 22359 22362 22365 22368 22371 22374 22377 22380 
22383 22386 22389 22392 22395 22398 22401 22404 22407 
22410 22413 22416 22419 22422 22425 22428 22431 22434 
22437 22440 22443 22446 22449 22452 22455 22458 22461 
22464 22467 22470 22473 22476 22479 22482 22485 22488 
22491 22494 22497 22500 22503 22506 22509 22512 22515 
22518 22521 22524 22527 22530 22533 22536 22539 22542 
22545 22548 22551 22554 22557 22560 22563 22566 22569 
22572 22575 22578 22581 22584 22587 22590 22593 22596 
22599 22602 22605 22608 22611 22614 22617 22620 22623 
22626 22629 22632 22635 22638 22641 22644 22647 22650 
22653 22656 22659 22662 22665 22668 22671 22674 22677 
22680 22683 22686 22689 22692 22695 22698 22701 22704 
22707 22710 22713 22716 22719 22722 22725 22728 22731 
22734 22737 22740 22743 22746 22749 22752 22755 22758 
22761 22764 22767 22770 22773 22776 22779 22782 22785 
22788 22791 22794 22797 22800 22803 22806 22809 22812 
22815 22818 22821 22824 22827 22830 22833 22836 22839 
22842 22845 22848 22851 22854 22857 22860 22863 22866 
22869 22872 22875 22878 22881 22884 22887 22890 22893 
22896 22899 22902 22905 22908 22911 22914 22917 22920 
22923 22926 22929 22932 22935 22938 22941 22944 22947 
22950 22953 22956 22959 22962 22965 22968 22971 22974 
22977 22980 22983 22986 22989 22992 22995 22998 23001 
23004 23007 23010 23013 23016 23019 23022 23025 23028 
23031 23034 23037 23040 23043 23046 23049 23052 23055 
23058 23061 23064 23067 23070 23073 23076 23079 23082 
23085 23088 23091 23094 23097 23100 23103 23106 23109 
23112 23115 23118 23121 23124 23127 23130 23133 23136 
23139 23142 23145 23148 23151 23154 23157 23160 23163 
23166 23169 23172 23175 23178 23181 23184 23187 23190 
23193 23196 23199 23202 23205 23208 23211 23214 23217 
23220 23223 23226 23229 23232 23235 23238 23241 23244 
23247 23250 23253 23256 23259 23262 23265 23268 23271 
23274 23277 23280 23283 23286 23289 23292 23295 23298 
23301 23304 23307 23310 23313 23316 23319 23322 23325 
23328 23331 23334 23337 23340 23343 23346 23349 23352 
23355 23358 23361 23364 23367 23370 23373 23376 23379 
23382 23385 23388 23391 23394 23397 23400 23403 23406 
23409 23412 23415 23418 23421 23424 23427 23430 23433 
23436 23439 23442 23445 23448 23451 23454 23457 23460 
23463 23466 23469 23472 23475 23478 23481 23484 23487 
23490 23493 23496 23499 23502 23505 23508 23511 23514 
23517 23520 23523 23526 23529 23532 23535 23538 23541 
23544 23547 23550 23553 23556 23559 23562 23565 23568 
23571 23574 23577 23580 23583 23586 23589 23592 23595 
23598 23601 23604 23607 23610 23613 23616 23619 23622 
23625 23628 23631 23634 23637 23640 23643 23646 23649 
23652 23655 23658 23661 23664 23667 23670 23673 23676 
23679 23682 23685 23688 23691 23694 23697 23700 23703 
23706 23709 23712 23715 23718 23721 23724 23727 23730 
23733 23736 23739 23742 23745 23748 23751 23754 23757 
23760 23763 23766 23769 23772 23775 23778 23781 23784 
23787 23790 23793 23796 23799 23802 23805 23808 23811 
23814 23817 23820 23823 23826 23829 23832 23835 23838 
23841 23844 23847 23850 23853 23856 23859 23862 23865 
23868 23871 23874 23877 23880 23883 23886 23889 23892 
23895 23898 23901 23904 23907 23910 23913 23916 23919 
23922 23925 23928 23931 23934 23937 23940 23943 23946 
23949 23952 23955 23958 23961 23964 23967 23970 23973 
23976 23979 23982 23985 23988 23991 23994 23997 24000 
24003 24006 24009 24012 24015 24018 24021 24024 24027 
24030 24033 24036 24039 24042 24045 24048 24051 24054 
24057 24060 24063 24066 24069 24072 24075 24078 24081 
24084 24087 24090 24093 24096 24099 24102 24105 24108 
24111 24114 24117 24120 24123 24126 24129 24132 24135 
24138 24141 24144 24147 24150 24153 24156 24159 24162 
24165 24168 24171 24174 24177 24180 24183 24186 24189 
24192 24195 24198 24201 24204 24207 24210 24213 24216 
24219 24222 24225 24228 24231 24234 24237 24240 24243 
24246 24249 24252 24255 24258 24261 24264 24267 24270 
24273 24276 24279 24282 24285 24288 24291 24294 24297 
24300 24303 24306 24309 24312 24315 24318 24321 24324 
24327 24330 24333 24336 24339 24342 24345 24348 24351 
24354 24357 24360 24363 24366 24369 24372 24375 24378 
24381 24384 24387 24390 24393 24396 24399 24402 24405 
24408 24411 24414 24417 24420 24423 24426 24429 24432 
24435 24438 24441 24444 24447 24450 24453 24456 24459 
24462 24465 24468 24471 24474 24477 24480 24483 24486 
24489 24492 24495 24498 24501 24504 24507 24510 24513 
24516 24519 24522 24525 24528 24531 24534 24537 24540 
24543 24546 24549 24552 24555 24558 24561 24564 24567 
24570 24573 24576 24579 24582 24585 24588 24591 24594 
24597 24600 24603 24606 24609 24612 24615 24618 24621 
24624 24627 24630 24633 24636 24639 24642 24645 24648 
24651 24654 24657 24660 24663 24666 24669 24672 24675 
24678 24681 24684 24687 24690 24693 24696 24699 24702 
24705 24708 24711 24714 24717 24720 24723 24726 24729 
24732 24735 24738 24741 24744 24747 24750 24753 24756 
24759 24762 24765 24768 24771 24774 24777 24780 24783 
24786 24789 24792 24795 24798 24801 24804 24807 24810 
24813 24816 24819 24822 24825 24828 24831 24834 24837 
24840 24843 24846 24849 24852 24855 24858 24861 24864 
24867 24870 24873 24876 24879 24882 24885 24888 24891 
24894 24897 24900 24903 24906 24909 24912 24915 24918 
24921 24924 24927 24930 24933 24936 24939 24942 24945 
24948 24951 24954 24957 24960 24963 24966 24969 24972 
24975 24978 24981 24984 24987 24990 24993 24996 24999 
25002 25005 25008 25011 25014 25017 25020 25023 25026 
25029 25032 25035 25038 25041 25044 25047 25050 25053 
25056 25059 25062 25065 25068 25071 25074 25077 25080 
25083 25086 25089 25092 25095 25098 25101 25104 25107 
25110 25113 25116 25119 25122 25125 25128 25131 25134 
25137 25140 25143 25146 25149 25152 25155 25158 25161 
25164 25167 25170 25173 25176 25179 25182 25185 25188 
25191 25194 25197 25200 25203 25206 25209 25212 25215 
25218 25221 25224 25227 25230 25233 25236 25239 25242 
25245 25248 25251 25254 25257 25260 25263 25266 25269 
25272 25275 25278 25281 25284 25287 25290 25293 25296 
25299 25302 25305 25308 25311 25314 25317 25320 25323 
25326 25329 25332 25335 25338 25341 25344 25347 25350 
25353 25356 25359 25362 25365 25368 25371 25374 25377 
25380 25383 25386 25389 25392 25395 25398 25401 25404 
25407 25410 25413 25416 25419 25422 25425 25428 25431 
25434 25437 25440 25443 25446 25449 25452 25455 25458 
25461 25464 25467 25470 25473 25476 25479 25482 25485 
25488 25491 25494 25497 25500 25503 25506 25509 25512 
25515 25518 25521 25524 25527 25530 25533 25536 25539 
25542 25545 25548 25551 25554 25557 25560 25563 25566 
25569 25572 25575 25578 25581 25584 25587 25590 25593 
25596 25599 25602 25605 25608 25611 25614 25617 25620 
25623 25626 25629 25632 25635 25638 25641 25644 25647 
25650 25653 25656 25659 25662 25665 25668 25671 25674 
25677 25680 25683 25686 25689 25692 25695 25698 25701 
25704 25707 25710 25713 25716 25719 25722 25725 25728 
25731 25734 25737 25740 25743 25746 25749 25752 25755 
25758 25761 25764 25767 25770 25773 25776 25779 25782 
25785 25788 25791 25794 25797 25800 25803 25806 25809 
25812 25815 25818 25821 25824 25827 25830 25833 25836 
25839 25842 25845 25848 25851 25854 25857 25860 25863 
25866 25869 25872 25875 25878 25881 25884 25887 25890 
25893 25896 25899 25902 25905 25908 25911 25914 25917 
25920 25923 25926 25929 25932 25935 25938 25941 25944 
25947 25950 25953 25956 25959 25962 25965 25968 25971 
25974 25977 25980 25983 25986 25989 25992 25995 25998 
26001 26004 26007 26010 26013 26016 26019 26022 26025 
26028 26031 26034 26037 26040 26043 26046 26049 26052 
26055 26058 26061 26064 26067 26070 26073 26076 26079 
26082 26085 26088 26091 26094 26097 26100 26103 26106 
26109 26112 26115 26118 26121 26124 26127 26130 26133 
26136 26139 26142 26145 26148 26151 26154 26157 26160 
26163 26166 26169 26172 26175 26178 26181 26184 26187 
26190 26193 26196 26199 26202 26205 26208 26211 26214 
26217 26220 26223 26226 26229 26232 26235 26238 26241 
26244 26247 26250 26253 26256 26259 26262 26265 26268 
26271 26274 26277 26280 26283 26286 26289 26292 26295 
26298 26301 26304 26307 26310 26313 26316 26319 26322 
26325 26328 26331 26334 26337 26340 26343 26346 26349 
26352 26355 26358 26361 26364 26367 26370 26373 26376 
26379 26382 26385 26388 26391 26394 26397 26400 26403 
26406 26409 26412 26415 26418 26421 26424 26427 26430 
26433 26436 26439 26442 26445 26448 26451 26454 26457 
26460 26463 26466 26469 26472 26475 26478 26481 26484 
26487 26490 26493 26496 26499 26502 26505 26508 26511 
26514 26517 26520 26523 26526 26529 26532 26535 26538 
26541 26544 26547 26550 26553 26556 26559 26562 26565 
26568 26571 26574 26577 26580 26583 26586 26589 26592 
26595 26598 26601 26604 26607 26610 26613 26616 26619 
26622 26625 26628 26631 26634 26637 26640 26643 26646 
26649 26652 26655 26658 26661 26664 26667 26670 26673 
26676 26679 26682 26685 26688 26691 26694 26697 26700 
26703 26706 26709 26712 26715 26718 26721 26724 26727 
26730 26733 26736 26739 26742 26745 26748 26751 26754 
26757 26760 26763 26766 26769 26772 26775 26778 26781 
26784 26787 26790 26793 26796 26799 26802 26805 26808 
26811 26814 26817 26820 26823 26826 26829 26832 26835 
26838 26841 26844 26847 26850 26853 26856 26859 26862 
26865 26868 26871 26874 26877 26880 26883 26886 26889 
26892 26895 26898 26901 26904 26907 26910 26913 26916 
26919 26922 26925 26928 26931 26934 26937 26940 26943 
26946 26949 26952 26955 26958 26961 26964 26967 26970 
26973 26976 26979 26982 26985 26988 26991 26994 26997 
27000 27003 27006 27009 27012 27015 27018 27021 27024 
27027 27030 27033 27036 27039 27042 27045 27048 27051 
27054 27057 27060 27063 27066 27069 27072 27075 27078 
27081 27084 27087 27090 27093 27096 27099 27102 27105 
27108 27111 27114 27117 27120 27123 27126 27129 27132 
27135 27138 27141 27144 27147 27150 27153 27156 27159 
27162 27165 27168 27171 27174 27177 27180 27183 27186 
27189 27192 27195 27198 27201 27204 27207 27210 27213 
27216 27219 27222 27225 27228 27231 27234 27237 27240 
27243 27246 27249 27252 27255 27258 27261 27264 27267 
27270 27273 27276 27279 27282 27285 27288 27291 27294 
27297 27300 27303 27306 27309 27312 27315 27318 27321 
27324 27327 27330 27333 27336 27339 27342 27345 27348 
27351 27354 27357 27360 27363 27366 27369 27372 27375 
27378 27381 27384 27387 27390 27393 27396 27399 27402 
27405 27408 27411 27414 27417 27420 27423 27426 27429 
27432 27435 27438 27441 27444 27447 27450 27453 27456 
27459 27462 27465 27468 27471 27474 27477 27480 27483 
27486 27489 27492 27495 27498 27501 27504 27507 27510 
27513 27516 27519 27522 27525 27528 27531 27534 27537 
27540 27543 27546 27549 27552 27555 27558 27561 27564 
27567 27570 27573 27576 27579 27582 27585 27588 27591 
27594 27597 27600 27603 27606 27609 27612 27615 27618 
27621 27624 27627 27630 27633 27636 27639 27642 27645 
27648 27651 27654 27657 27660 27663 27666 27669 27672 
27675 27678 27681 27684 27687 27690 27693 27696 27699 
27702 27705 27708 27711 27714 27717 27720 27723 27726 
27729 27732 27735 27738 27741 27744 27747 27750 27753 
27756 27759 27762 27765 27768 27771 27774 27777 27780 
27783 27786 27789 27792 27795 27798 27801 27804 27807 
27810 27813 27816 27819 27822 27825 27828 27831 27834 
27837 27840 27843 27846 27849 27852 27855 27858 27861 
27864 27867 27870 27873 27876 27879 27882 27885 27888 
27891 27894 27897 27900 27903 27906 27909 27912 27915 
27918 27921 27924 27927 27930 27933 27936 27939 27942 
27945 27948 27951 27954 27957 27960 27963 27966 27969 
27972 27975 27978 27981 27984 27987 27990 27993 27996 
27999 28002 28005 28008 28011 28014 28017 28020 28023 
28026 28029 28032 28035 28038 28041 28044 28047 28050 
28053 28056 28059 28062 28065 28068 28071 28074 28077 
28080 28083 28086 28089 28092 28095 28098 28101 28104 
28107 28110 28113 28116 28119 28122 28125 28128 28131 
28134 28137 28140 28143 28146 28149 28152 28155 28158 
28161 28164 28167 28170 28173 28176 28179 28182 28185 
28188 28191 28194 28197 28200 28203 28206 28209 28212 
28215 28218 28221 28224 28227 28230 28233 28236 28239 
28242 28245 28248 28251 28254 28257 28260 28263 28266 
28269 28272 28275 28278 28281 28284 28287 28290 28293 
28296 28299 28302 28305 28308 28311 28314 28317 28320 
28323 28326 28329 28332 28335 28338 28341 28344 28347 
28350 28353 28356 28359 28362 28365 28368 28371 28374 
28377 28380 28383 28386 28389 28392 28395 28398 28401 
28404 28407 28410 28413 28416 28419 28422 28425 28428 
28431 28434 28437 28440 28443 28446 28449 28452 28455 
28458 28461 28464 28467 28470 28473 28476 28479 28482 
28485 28488 28491 28494 28497 28500 28503 28506 28509 
28512 28515 28518 28521 28524 28527 28530 28533 28536 
28539 28542 28545 28548 28551 28554 28557 28560 28563 
28566 28569 28572 28575 28578 28581 28584 28587 28590 
28593 28596 28599 28602 28605 28608 28611 28614 28617 
28620 28623 28626 28629 28632 28635 28638 28641 28644 
28647 28650 28653 28656 28659 28662 28665 28668 28671 
28674 28677 28680 28683 28686 28689 28692 28695 28698 
28701 28704 28707 28710 28713 28716 28719 28722 28725 
28728 28731 28734 28737 28740 28743 28746 28749 28752 
28755 28758 28761 28764 28767 28770 28773 28776 28779 
28782 28785 28788 28791 28794 28797 28800 28803 28806 
28809 28812 28815 28818 28821 28824 28827 28830 28833 
28836 28839 28842 28845 28848 28851 28854 28857 28860 
28863 28866 28869 28872 28875 28878 28881 28884 28887 
28890 28893 28896 28899 28902 28905 28908 28911 28914 
28917 28920 28923 28926 28929 28932 28935 28938 28941 
28944 28947 28950 28953 28956 28959 28962 28965 28968 
28971 28974 28977 28980 28983 28986 28989 28992 28995 
28998 29001 29004 29007 29010 29013 29016 29019 29022 
29025 29028 29031 29034 29037 29040 29043 29046 29049 
29052 29055 29058 29061 29064 29067 29070 29073 29076 
29079 29082 29085 29088 29091 29094 29097 29100 29103 
29106 29109 29112 29115 29118 29121 29124 29127 29130 
29133 29136 29139 29142 29145 29148 29151 29154 29157 
29160 29163 29166 29169 29172 29175 29178 29181 29184 
29187 29190 29193 29196 29199 29202 29205 29208 29211 
29214 29217 29220 29223 29226 29229 29232 29235 29238 
29241 29244 29247 29250 29253 29256 29259 29262 29265 
29268 29271 29274 29277 29280 29283 29286 29289 29292 
29295 29298 29301 29304 29307 29310 29313 29316 29319 
29322 29325 29328 29331 29334 29337 29340 29343 29346 
29349 29352 29355 29358 29361 29364 29367 29370 29373 
29376 29379 29382 29385 29388 29391 29394 29397 29400 
29403 29406 29409 29412 29415 29418 29421 29424 29427 
29430 29433 29436 29439 29442 29445 29448 29451 29454 
29457 29460 29463 29466 29469 29472 29475 29478 29481 
29484 29487 29490 29493 29496 29499 29502 29505 29508 
29511 29514 29517 29520 29523 29526 29529 29532 29535 
29538 29541 29544 29547 29550 29553 29556 29559 29562 
29565 29568 29571 29574 29577 29580 29583 29586 29589 
29592 29595 29598 29601 29604 29607 29610 29613 29616 
29619 29622 29625 29628 29631 29634 29637 29640 29643 
29646 29649 29652 29655 29658 29661 29664 29667 29670 
29673 29676 29679 29682 29685 29688 29691 29694 29697 
29700 29703 29706 29709 29712 29715 29718 29721 29724 
29727 29730 29733 29736 29739 29742 29745 29748 29751 
29754 29757 29760 29763 29766 29769 29772 29775 29778 
29781 29784 29787 29790 29793 29796 29799 29802 29805 
29808 29811 29814 29817 29820 29823 29826 29829 29832 
29835 29838 29841 29844 29847 29850 29853 29856 29859 
29862 29865 29868 29871 29874 29877 29880 29883 29886 
29889 29892 29895 29898 29901 29904 29907 29910 29913 
29916 29919 29922 29925 29928 29931 29934 29937 29940 
29943 29946 29949 29952 29955 29958 29961 29964 29967 
29970 29973 29976 29979 29982 29985 29988 29991 29994 
29997 30000 30003 30006 30009 30012 30015 30018 30021 
30024 30027 30030 30033 30036 30039 30042 30045 30048 
30051 30054 30057 30060 30063 30066 30069 30072 30075 
30078 30081 30084 30087 30090 30093 30096 30099 30102 
30105 30108 30111 30114 30117 30120 30123 30126 30129 
30132 30135 30138 30141 30144 30147 30150 30153 30156 
30159 30162 30165 30168 30171 30174 30177 30180 30183 
30186 30189 30192 30195 30198 30201 30204 30207 30210 
30213 30216 30219 30222 30225 30228 30231 30234 30237 
30240 30243 30246 30249 30252 30255 30258 30261 30264 
30267 30270 30273 30276 30279 30282 30285 30288 30291 
30294 30297 30300 30303 30306 30309 30312 30315 30318 
30321 30324 30327 30330 30333 30336 30339 30342 30345 
30348 30351 30354 30357 30360 30363 30366 30369 30372 
30375 30378 30381 30384 30387 30390 30393 30396 30399 
30402 30405 30408 30411 30414 30417 30420 30423 30426 
30429 30432 30435 30438 30441 30444 30447 30450 30453 
30456 30459 30462 30465 30468 30471 30474 30477 30480 
30483 30486 30489 30492 30495 30498 30501 30504 30507 
30510 30513 30516 30519 30522 30525 30528 30531 30534 
30537 30540 30543 30546 30549 30552 30555 30558 30561 
30564 30567 30570 30573 30576 30579 30582 30585 30588 
30591 30594 30597 30600 30603 30606 30609 30612 30615 
30618 30621 30624 30627 30630 30633 30636 30639 30642 
30645 30648 30651 30654 30657 30660 30663 30666 30669 
30672 30675 30678 30681 30684 30687 30690 30693 30696 
30699 30702 30705 30708 30711 30714 30717 30720 30723 
30726 30729 30732 30735 30738 30741 30744 30747 30750 
30753 30756 30759 30762 30765 30768 30771 30774 30777 
30780 30783 30786 30789 30792 30795 30798 30801 30804 
30807 30810 30813 30816 30819 30822 30825 30828 30831 
30834 30837 30840 30843 30846 30849 30852 30855 30858 
30861 30864 30867 30870 30873 30876 30879 30882 30885 
30888 30891 30894 30897 30900 30903 30906 30909 30912 
30915 30918 30921 30924 30927 30930 30933 30936 30939 
30942 30945 30948 30951 30954 30957 30960 30963 30966 
30969 30972 30975 30978 30981 30984 30987 30990 30993 
30996 30999 31002 31005 31008 31011 31014 31017 31020 
31023 31026 31029 31032 31035 31038 31041 31044 31047 
31050 31053 31056 31059 31062 31065 31068 31071 31074 
31077 31080 31083 31086 31089 31092 31095 31098 31101 
31104 31107 31110 31113 31116 31119 31122 31125 31128 
31131 31134 31137 31140 31143 31146 31149 31152 31155 
31158 31161 31164 31167 31170 31173 31176 31179 31182 
31185 31188 31191 31194 31197 31200 31203 31206 31209 
31212 31215 31218 31221 31224 31227 31230 31233 31236 
31239 31242 31245 31248 31251 31254 31257 31260 31263 
31266 31269 31272 31275 31278 31281 31284 31287 31290 
31293 31296 31299 31302 31305 31308 31311 31314 31317 
31320 31323 31326 31329 31332 31335 31338 31341 31344 
31347 31350 31353 31356 31359 31362 31365 31368 31371 
31374 31377 31380 31383 31386 31389 31392 31395 31398 
31401 31404 31407 31410 31413 31416 31419 31422 31425 
31428 31431 31434 31437 31440 31443 31446 31449 31452 
31455 31458 31461 31464 31467 31470 31473 31476 31479 
31482 31485 31488 31491 31494 31497 31500 31503 31506 
31509 31512 31515 31518 31521 31524 31527 31530 31533 
31536 31539 31542 31545 31548 31551 31554 31557 31560 
31563 31566 31569 31572 31575 31578 31581 31584 31587 
31590 31593 31596 31599 31602 31605 31608 31611 31614 
31617 31620 31623 31626 31629 31632 31635 31638 31641 
31644 31647 31650 31653 31656 31659 31662 31665 31668 
31671 31674 31677 31680 31683 31686 31689 31692 31695 
31698 31701 31704 31707 31710 31713 31716 31719 31722 
31725 31728 31731 31734 31737 31740 31743 31746 31749 
31752 31755 31758 31761 31764 31767 31770 31773 31776 
31779 31782 31785 31788 31791 31794 31797 31800 31803 
31806 31809 31812 31815 31818 31821 31824 31827 31830 
31833 31836 31839 31842 31845 31848 31851 31854 31857 
31860 31863 31866 31869 31872 31875 31878 31881 31884 
31887 31890 31893 31896 31899 31902 31905 31908 31911 
31914 31917 31920 31923 31926 31929 31932 31935 31938 
31941 31944 31947 31950 31953 31956 31959 31962 31965 
31968 31971 31974 31977 31980 31983 31986 31989 31992 
31995 31998 32001 32004 32007 32010 32013 32016 32019 
32022 32025 32028 32031 32034 32037 32040 32043 32046 
32049 32052 32055 32058 32061 32064 32067 32070 32073 
32076 32079 32082 32085 32088 32091 32094 32097 32100 
32103 32106 32109 32112 32115 32118 32121 32124 32127 
32130 32133 32136 32139 32142 32145 32148 32151 32154 
32157 32160 32163 32166 32169 32172 32175 32178 32181 
32184 32187 32190 32193 32196 32199 32202 32205 32208 
32211 32214 32217 32220 32223 32226 32229 32232 32235 
32238 32241 32244 32247 32250 32253 32256 32259 32262 
32265 32268 32271 32274 32277 32280 32283 32286 32289 
32292 32295 32298 32301 32304 32307 32310 32313 32316 
32319 32322 32325 32328 32331 32334 32337 32340 32343 
32346 32349 32352 32355 32358 32361 32364 32367 32370 
32373 32376 32379 32382 32385 32388 32391 32394 32397 
32400 32403 32406 32409 32412 32415 32418 32421 32424 
32427 32430 32433 32436 32439 32442 32445 32448 32451 
32454 32457 32460 32463 32466 32469 32472 32475 32478 
32481 32484 32487 32490 32493 32496 32499 32502 32505 
32508 32511 32514 32517 32520 32523 32526 32529 32532 
32535 32538 32541 32544 32547 32550 32553 32556 32559 
32562 32565 32568 32571 32574 32577 32580 32583 32586 
32589 32592 32595 32598 32601 32604 32607 32610 32613 
32616 32619 32622 32625 32628 32631 32634 32637 32640 
32643 32646 32649 32652 32655 32658 32661 32664 32667 
32670 32673 32676 32679 32682 32685 32688 32691 32694 
32697 32700 32703 32706 32709 32712 32715 32718 32721 
32724 32727 32730 32733 32736 32739 32742 32745 32748 
32751 32754 32757 32760 32763 32766 32769 32772 32775 
32778 32781 32784 32787 32790 32793 32796 32799 32802 
32805 32808 32811 32814 32817 32820 32823 32826 32829 
32832 32835 32838 32841 32844 32847 32850 32853 32856 
32859 32862 32865 32868 32871 32874 32877 32880 32883 
32886 32889 32892 32895 32898 32901 32904 32907 32910 
32913 32916 32919 32922 32925 32928 32931 32934 32937 
32940 32943 32946 32949 32952 32955 32958 32961 32964 
32967 32970 32973 32976 32979 32982 32985 32988 32991 
32994 32997 33000 33003 33006 33009 33012 33015 33018 
33021 33024 33027 33030 33033 33036 33039 33042 33045 
33048 33051 33054 33057 33060 33063 33066 33069 33072 
33075 33078 33081 33084 33087 33090 33093 33096 33099 
33102 33105 33108 33111 33114 33117 33120 33123 33126 
33129 33132 33135 33138 33141 33144 33147 33150 33153 
33156 33159 33162 33165 33168 33171 33174 33177 33180 
33183 33186 33189 33192 33195 33198 33201 33204 33207 
33210 33213 33216 33219 33222 33225 33228 33231 33234 
33237 33240 33243 33246 33249 33252 33255 33258 33261 
33264 33267 33270 33273 33276 33279 33282 33285 33288 
33291 33294 33297 33300 33303 33306 33309 33312 33315 
33318 33321 33324 33327 33330 33333 33336 33339 33342 
33345 33348 33351 33354 33357 33360 33363 33366 33369 
33372 33375 33378 33381 33384 33387 33390 33393 33396 
33399 33402 33405 33408 33411 33414 33417 33420 33423 
33426 33429 33432 33435 33438 33441 33444 33447 33450 
33453 33456 33459 33462 33465 33468 33471 33474 33477 
33480 33483 33486 33489 33492 33495 33498 33501 33504 
33507 33510 33513 33516 33519 33522 33525 33528 33531 
33534 33537 33540 33543 33546 33549 33552 33555 33558 
33561 33564 33567 33570 33573 33576 33579 33582 33585 
33588 33591 33594 33597 33600 33603 33606 33609 33612 
33615 33618 33621 33624 33627 33630 33633 33636 33639 
33642 33645 33648 33651 33654 33657 33660 33663 33666 
33669 33672 33675 33678 33681 33684 33687 33690 33693 
33696 33699 33702 33705 33708 33711 33714 33717 33720 
33723 33726 33729 33732 33735 33738 33741 33744 33747 
33750 33753 33756 33759 33762 33765 33768 33771 33774 
33777 33780 33783 33786 33789 33792 33795 33798 33801 
33804 33807 33810 33813 33816 33819 33822 33825 33828 
33831 33834 33837 33840 33843 33846 33849 33852 33855 
33858 33861 33864 33867 33870 33873 33876 33879 33882 
33885 33888 33891 33894 33897 33900 33903 33906 33909 
33912 33915 33918 33921 33924 33927 33930 33933 33936 
33939 33942 33945 33948 33951 33954 33957 33960 33963 
33966 33969 33972 33975 33978 33981 33984 33987 33990 
33993 33996 33999 34002 34005 34008 34011 34014 34017 
34020 34023 34026 34029 34032 34035 34038 34041 34044 
34047 34050 34053 34056 34059 34062 34065 34068 34071 
34074 34077 34080 34083 34086 34089 34092 34095 34098 
34101 34104 34107 34110 34113 34116 34119 34122 34125 
34128 34131 34134 34137 34140 34143 34146 34149 34152 
34155 34158 34161 34164 34167 34170 34173 34176 34179 
34182 34185 34188 34191 34194 34197 34200 34203 34206 
34209 34212 34215 34218 34221 34224 34227 34230 34233 
34236 34239 34242 34245 34248 34251 34254 34257 34260 
34263 34266 34269 34272 34275 34278 34281 34284 34287 
34290 34293 34296 34299 34302 34305 34308 34311 34314 
34317 34320 34323 34326 34329 34332 34335 34338 34341 
34344 34347 34350 34353 34356 34359 34362 34365 34368 
34371 34374 34377 34380 34383 34386 34389 34392 34395 
34398 34401 34404 34407 34410 34413 34416 34419 34422 
34425 34428 34431 34434 34437 34440 34443 34446 34449 
34452 34455 34458 34461 34464 34467 34470 34473 34476 
34479 34482 34485 34488 34491 34494 34497 34500 34503 
34506 34509 34512 34515 34518 34521 34524 34527 34530 
34533 34536 34539 34542 34545 34548 34551 34554 34557 
34560 34563 34566 34569 34572 34575 34578 34581 34584 
34587 34590 34593 34596 34599 34602 34605 34608 34611 
34614 34617 34620 34623 34626 34629 34632 34635 34638 
34641 34644 34647 34650 34653 34656 34659 34662 34665 
34668 34671 34674 34677 34680 34683 34686 34689 34692 
34695 34698 34701 34704 34707 34710 34713 34716 34719 
34722 34725 34728 34731 34734 34737 34740 34743 34746 
34749 34752 34755 34758 34761 34764 34767 34770 34773 
34776 34779 34782 34785 34788 34791 34794 34797 34800 
34803 34806 34809 34812 34815 34818 34821 34824 34827 
34830 34833 34836 34839 34842 34845 34848 34851 34854 
34857 34860 34863 34866 34869 34872 34875 34878 34881 
34884 34887 34890 34893 34896 34899 34902 34905 34908 
34911 34914 34917 34920 34923 34926 34929 34932 34935 
34938 34941 34944 34947 34950 34953 34956 34959 34962 
34965 34968 34971 34974 34977 34980 34983 34986 34989 
34992 34995 34998 35001 35004 35007 35010 35013 35016 
35019 35022 35025 35028 35031 35034 35037 35040 35043 
35046 35049 35052 35055 35058 35061 35064 35067 35070 
35073 35076 35079 35082 35085 35088 35091 35094 35097 
35100 35103 35106 35109 35112 35115 35118 35121 35124 
35127 35130 35133 35136 35139 35142 35145 35148 35151 
35154 35157 35160 35163 35166 35169 35172 35175 35178 
35181 35184 35187 35190 35193 35196 35199 35202 35205 
35208 35211 35214 35217 35220 35223 35226 35229 35232 
35235 35238 35241 35244 35247 35250 35253 35256 35259 
35262 35265 35268 35271 35274 35277 35280 35283 35286 
35289 35292 35295 35298 35301 35304 35307 35310 35313 
35316 35319 35322 35325 35328 35331 35334 35337 35340 
35343 35346 35349 35352 35355 35358 35361 35364 35367 
35370 35373 35376 35379 35382 35385 35388 35391 35394 
35397 35400 35403 35406 35409 35412 35415 35418 35421 
35424 35427 35430 35433 35436 35439 35442 35445 35448 
35451 35454 35457 35460 35463 35466 35469 35472 35475 
35478 35481 35484 35487 35490 35493 35496 35499 35502 
35505 35508 35511 35514 35517 35520 35523 35526 35529 
35532 35535 35538 35541 35544 35547 35550 35553 35556 
35559 35562 35565 35568 35571 35574 35577 35580 35583 
35586 35589 35592 35595 35598 35601 35604 35607 35610 
35613 35616 35619 35622 35625 35628 35631 35634 35637 
35640 35643 35646 35649 35652 35655 35658 35661 35664 
35667 35670 35673 35676 35679 35682 35685 35688 35691 
35694 35697 35700 35703 35706 35709 35712 35715 35718 
35721 35724 35727 35730 35733 35736 35739 35742 35745 
35748 35751 35754 35757 35760 35763 35766 35769 35772 
35775 35778 35781 35784 35787 35790 35793 35796 35799 
35802 35805 35808 35811 35814 35817 35820 35823 35826 
35829 35832 35835 35838 35841 35844 35847 35850 35853 
35856 35859 35862 35865 35868 35871 35874 35877 35880 
35883 35886 35889 35892 35895 35898 35901 35904 35907 
35910 35913 35916 35919 35922 35925 35928 35931 35934 
35937 35940 35943 35946 35949 35952 35955 35958 35961 
35964 35967 35970 35973 35976 35979 35982 35985 35988 
35991 35994 35997 36000 36003 36006 36009 36012 36015 
36018 36021 36024 36027 36030 36033 36036 36039 36042 
36045 36048 36051 36054 36057 36060 36063 36066 36069 
36072 36075 36078 36081 36084 36087 36090 36093 36096 
36099 36102 36105 36108 36111 36114 36117 36120 36123 
36126 36129 36132 36135 36138 36141 36144 36147 36150 
36153 36156 36159 36162 36165 36168 36171 36174 36177 
36180 36183 36186 36189 36192 36195 36198 36201 36204 
36207 36210 36213 36216 36219 36222 36225 36228 36231 
36234 36237 36240 36243 36246 36249 36252 36255 36258 
36261 36264 36267 36270 36273 36276 36279 36282 36285 
36288 36291 36294 36297 36300 36303 36306 36309 36312 
36315 36318 36321 36324 36327 36330 36333 36336 36339 
36342 36345 36348 36351 36354 36357 36360 36363 36366 
36369 36372 36375 36378 36381 36384 36387 36390 36393 
36396 36399 36402 36405 36408 36411 36414 36417 36420 
36423 36426 36429 36432 36435 36438 36441 36444 36447 
36450 36453 36456 36459 36462 36465 36468 36471 36474 
36477 36480 36483 36486 36489 36492 36495 36498 36501 
36504 36507 36510 36513 36516 36519 36522 36525 36528 
36531 36534 36537 36540 36543 36546 36549 36552 36555 
36558 36561 36564 36567 36570 36573 36576 36579 36582 
36585 36588 36591 36594 36597 36600 36603 36606 36609 
36612 36615 36618 36621 36624 36627 36630 36633 36636 
36639 36642 36645 36648 36651 36654 36657 36660 36663 
36666 36669 36672 36675 36678 36681 36684 36687 36690 
36693 36696 36699 36702 36705 36708 36711 36714 36717 
36720 36723 36726 36729 36732 36735 36738 36741 36744 
36747 36750 36753 36756 36759 36762 36765 36768 36771 
36774 36777 36780 36783 36786 36789 36792 36795 36798 
36801 36804 36807 36810 36813 36816 36819 36822 36825 
36828 36831 36834 36837 36840 36843 36846 36849 36852 
36855 36858 36861 36864 36867 36870 36873 36876 36879 
36882 36885 36888 36891 36894 36897 36900 36903 36906 
36909 36912 36915 36918 36921 36924 36927 36930 36933 
36936 36939 36942 36945 36948 36951 36954 36957 36960 
36963 36966 36969 36972 36975 36978 36981 36984 36987 
36990 36993 36996 36999 37002 37005 37008 37011 37014 
37017 37020 37023 37026 37029 37032 37035 37038 37041 
37044 37047 37050 37053 37056 37059 37062 37065 37068 
37071 37074 37077 37080 37083 37086 37089 37092 37095 
37098 37101 37104 37107 37110 37113 37116 37119 37122 
37125 37128 37131 37134 37137 37140 37143 37146 37149 
37152 37155 37158 37161 37164 37167 37170 37173 37176 
37179 37182 37185 37188 37191 37194 37197 37200 37203 
37206 37209 37212 37215 37218 37221 37224 37227 37230 
37233 37236 37239 37242 37245 37248 37251 37254 37257 
37260 37263 37266 37269 37272 37275 37278 37281 37284 
37287 37290 37293 37296 37299 37302 37305 37308 37311 
37314 37317 37320 37323 37326 37329 37332 37335 37338 
37341 37344 37347 37350 37353 37356 37359 37362 37365 
37368 37371 37374 37377 37380 37383 37386 37389 37392 
37395 37398 37401 37404 37407 37410 37413 37416 37419 
37422 37425 37428 37431 37434 37437 37440 37443 37446 
37449 37452 37455 37458 37461 37464 37467 37470 37473 
37476 37479 37482 37485 37488 37491 37494 37497 37500 
37503 37506 37509 37512 37515 37518 37521 37524 37527 
37530 37533 37536 37539 37542 37545 37548 37551 37554 
37557 37560 37563 37566 37569 37572 37575 37578 37581 
37584 37587 37590 37593 37596 37599 37602 37605 37608 
37611 37614 37617 37620 37623 37626 37629 37632 37635 
37638 37641 37644 37647 37650 37653 37656 37659 37662 
37665 37668 37671 37674 37677 37680 37683 37686 37689 
37692 37695 37698 37701 37704 37707 37710 37713 37716 
37719 37722 37725 37728 37731 37734 37737 37740 37743 
37746 37749 37752 37755 37758 37761 37764 37767 37770 
37773 37776 37779 37782 37785 37788 37791 37794 37797 
37800 37803 37806 37809 37812 37815 37818 37821 37824 
37827 37830 37833 37836 37839 37842 37845 37848 37851 
37854 37857 37860 37863 37866 37869 37872 37875 37878 
37881 37884 37887 37890 37893 37896 37899 37902 37905 
37908 37911 37914 37917 37920 37923 37926 37929 37932 
37935 37938 37941 37944 37947 37950 37953 37956 37959 
37962 37965 37968 37971 37974 37977 37980 37983 37986 
37989 37992 37995 37998 38001 38004 38007 38010 38013 
38016 38019 38022 38025 38028 38031 38034 38037 38040 
38043 38046 38049 38052 38055 38058 38061 38064 38067 
38070 38073 38076 38079 38082 38085 38088 38091 38094 
38097 38100 38103 38106 38109 38112 38115 38118 38121 
38124 38127 38130 38133 38136 38139 38142 38145 38148 
38151 38154 38157 38160 38163 38166 38169 38172 38175 
38178 38181 38184 38187 38190 38193 38196 38199 38202 
38205 38208 38211 38214 38217 38220 38223 38226 38229 
38232 38235 38238 38241 38244 38247 38250 38253 38256 
38259 38262 38265 38268 38271 38274 38277 38280 38283 
38286 38289 38292 38295 38298 38301 38304 38307 38310 
38313 38316 38319 38322 38325 38328 38331 38334 38337 
38340 38343 38346 38349 38352 38355 38358 38361 38364 
38367 38370 38373 38376 38379 38382 38385 38388 38391 
38394 38397 38400 38403 38406 38409 38412 38415 38418 
38421 38424 38427 38430 38433 38436 38439 38442 38445 
38448 38451 38454 38457 38460 38463 38466 38469 38472 
38475 38478 38481 38484 38487 38490 38493 38496 38499 
38502 38505 38508 38511 38514 38517 38520 38523 38526 
38529 38532 38535 38538 38541 38544 38547 38550 38553 
38556 38559 38562 38565 38568 38571 38574 38577 38580 
38583 38586 38589 38592 38595 38598 38601 38604 38607 
38610 38613 38616 38619 38622 38625 38628 38631 38634 
38637 38640 38643 38646 38649 38652 38655 38658 38661 
38664 38667 38670 38673 38676 38679 38682 38685 38688 
38691 38694 38697 38700 38703 38706 38709 38712 38715 
38718 38721 38724 38727 38730 38733 38736 38739 38742 
38745 38748 38751 38754 38757 38760 38763 38766 38769 
38772 38775 38778 38781 38784 38787 38790 38793 38796 
38799 38802 38805 38808 38811 38814 38817 38820 38823 
38826 38829 38832 38835 38838 38841 38844 38847 38850 
38853 38856 38859 38862 38865 38868 38871 38874 38877 
38880 38883 38886 38889 38892 38895 38898 38901 38904 
38907 38910 38913 38916 38919 38922 38925 38928 38931 
38934 38937 38940 38943 38946 38949 38952 38955 38958 
38961 38964 38967 38970 38973 38976 38979 38982 38985 
38988 38991 38994 38997 39000 39003 39006 39009 39012 
39015 39018 39021 39024 39027 39030 39033 39036 39039 
39042 39045 39048 39051 39054 39057 39060 39063 39066 
39069 39072 39075 39078 39081 39084 39087 39090 39093 
39096 39099 39102 39105 39108 39111 39114 39117 39120 
39123 39126 39129 39132 39135 39138 39141 39144 39147 
39150 39153 39156 39159 39162 39165 39168 39171 39174 
39177 39180 39183 39186 39189 39192 39195 39198 39201 
39204 39207 39210 39213 39216 39219 39222 39225 39228 
39231 39234 39237 39240 39243 39246 39249 39252 39255 
39258 39261 39264 39267 39270 39273 39276 39279 39282 
39285 39288 39291 39294 39297 39300 39303 39306 39309 
39312 39315 39318 39321 39324 39327 39330 39333 39336 
39339 39342 39345 39348 39351 39354 39357 39360 39363 
39366 39369 39372 39375 39378 39381 39384 39387 39390 
39393 39396 39399 39402 39405 39408 39411 39414 39417 
39420 39423 39426 39429 39432 39435 39438 39441 39444 
39447 39450 39453 39456 39459 39462 39465 39468 39471 
39474 39477 39480 39483 39486 39489 39492 39495 39498 
39501 39504 39507 39510 39513 39516 39519 39522 39525 
39528 39531 39534 39537 39540 39543 39546 39549 39552 
39555 39558 39561 39564 39567 39570 39573 39576 39579 
39582 39585 39588 39591 39594 39597 39600 39603 39606 
39609 39612 39615 39618 39621 39624 39627 39630 39633 
39636 39639 39642 39645 39648 39651 39654 39657 39660 
39663 39666 39669 39672 39675 39678 39681 39684 39687 
39690 39693 39696 39699 39702 39705 39708 39711 39714 
39717 39720 39723 39726 39729 39732 39735 39738 39741 
39744 39747 39750 39753 39756 39759 39762 39765 39768 
39771 39774 39777 39780 39783 39786 39789 39792 39795 
39798 39801 39804 39807 39810 39813 39816 39819 39822 
39825 39828 39831 39834 39837 39840 39843 39846 39849 
39852 39855 39858 39861 39864 39867 39870 39873 39876 
39879 39882 39885 39888 39891 39894 39897 39900 39903 
39906 39909 39912 39915 39918 39921 39924 39927 39930 
39933 39936 39939 39942 39945 39948 39951 39954 39957 
39960 39963 39966 39969 39972 39975 39978 39981 39984 
39987 39990 39993 39996 39999 40002 40005 40008 40011 
40014 40017 40020 40023 40026 40029 40032 40035 40038 
40041 40044 40047 40050 40053 40056 40059 40062 40065 
40068 40071 40074 40077 40080 40083 40086 40089 40092 
40095 40098 40101 40104 40107 40110 40113 40116 40119 
40122 40125 40128 40131 40134 40137 40140 40143 40146 
40149 40152 40155 40158 40161 40164 40167 40170 40173 
40176 40179 40182 40185 40188 40191 40194 40197 40200 
40203 40206 40209 40212 40215 40218 40221 40224 40227 
40230 40233 40236 40239 40242 40245 40248 40251 40254 
40257 40260 40263 40266 40269 40272 40275 40278 40281 
40284 40287 40290 40293 40296 40299 40302 40305 40308 
40311 40314 40317 40320 40323 40326 40329 40332 40335 
40338 40341 40344 40347 40350 40353 40356 40359 40362 
40365 40368 40371 40374 40377 40380 40383 40386 40389 
40392 40395 40398 40401 40404 40407 40410 40413 40416 
40419 40422 40425 40428 40431 40434 40437 40440 40443 
40446 40449 40452 40455 40458 40461 40464 40467 40470 
40473 40476 40479 40482 40485 40488 40491 40494 40497 
40500 40503 40506 40509 40512 40515 40518 40521 40524 
40527 40530 40533 40536 40539 40542 40545 40548 40551 
40554 40557 40560 40563 40566 40569 40572 40575 40578 
40581 40584 40587 40590 40593 40596 40599 40602 40605 
40608 40611 40614 40617 40620 40623 40626 40629 40632 
40635 40638 40641 40644 40647 40650 40653 40656 40659 
40662 40665 40668 40671 40674 40677 40680 40683 40686 
40689 40692 40695 40698 40701 40704 40707 40710 40713 
40716 40719 40722 40725 40728 40731 40734 40737 40740 
40743 40746 40749 40752 40755 40758 40761 40764 40767 
40770 40773 40776 40779 40782 40785 40788 40791 40794 
40797 40800 40803 40806 40809 40812 40815 40818 40821 
40824 40827 40830 40833 40836 40839 40842 40845 40848 
40851 40854 40857 40860 40863 40866 40869 40872 40875 
40878 40881 40884 40887 40890 40893 40896 40899 40902 
40905 40908 40911 40914 40917 40920 40923 40926 40929 
40932 40935 40938 40941 40944 40947 40950 40953 40956 
40959 40962 40965 40968 40971 40974 40977 40980 40983 
40986 40989 40992 40995 40998 41001 41004 41007 41010 
41013 41016 41019 41022 41025 41028 41031 41034 41037 
41040 41043 41046 41049 41052 41055 41058 41061 41064 
41067 41070 41073 41076 41079 41082 41085 41088 41091 
41094 41097 41100 41103 41106 41109 41112 41115 41118 
41121 41124 41127 41130 41133 41136 41139 41142 41145 
41148 41151 41154 41157 41160 41163 41166 41169 41172 
41175 41178 41181 41184 41187 41190 41193 41196 41199 
41202 41205 41208 41211 41214 41217 41220 41223 41226 
41229 41232 41235 41238 41241 41244 41247 41250 41253 
41256 41259 41262 41265 41268 41271 41274 41277 41280 
41283 41286 41289 41292 41295 41298 41301 41304 41307 
41310 41313 41316 41319 41322 41325 41328 41331 41334 
41337 41340 41343 41346 41349 41352 41355 41358 41361 
41364 41367 41370 41373 41376 41379 41382 41385 41388 
41391 41394 41397 41400 41403 41406 41409 41412 41415 
41418 41421 41424 41427 41430 41433 41436 41439 41442 
41445 41448 41451 41454 41457 41460 41463 41466 41469 
41472 41475 41478 41481 41484 41487 41490 41493 41496 
41499 41502 41505 41508 41511 41514 41517 41520 41523 
41526 41529 41532 41535 41538 41541 41544 41547 41550 
41553 41556 41559 41562 41565 41568 41571 41574 41577 
41580 41583 41586 41589 41592 41595 41598 41601 41604 
41607 41610 41613 41616 41619 41622 41625 41628 41631 
41634 41637 41640 41643 41646 41649 41652 41655 41658 
41661 41664 41667 41670 41673 41676 41679 41682 41685 
41688 41691 41694 41697 41700 41703 41706 41709 41712 
41715 41718 41721 41724 41727 41730 41733 41736 41739 
41742 41745 41748 41751 41754 41757 41760 41763 41766 
41769 41772 41775 41778 41781 41784 41787 41790 41793 
41796 41799 41802 41805 41808 41811 41814 41817 41820 
41823 41826 41829 41832 41835 41838 41841 41844 41847 
41850 41853 41856 41859 41862 41865 41868 41871 41874 
41877 41880 41883 41886 41889 41892 41895 41898 41901 
41904 41907 41910 41913 41916 41919 41922 41925 41928 
41931 41934 41937 41940 41943 41946 41949 41952 41955 
41958 41961 41964 41967 41970 41973 41976 41979 41982 
41985 41988 41991 41994 41997 42000 42003 42006 42009 
42012 42015 42018 42021 42024 42027 42030 42033 42036 
42039 42042 42045 42048 42051 42054 42057 42060 42063 
42066 42069 42072 42075 42078 42081 42084 42087 42090 
42093 42096 42099 42102 42105 42108 42111 42114 42117 
42120 42123 42126 42129 42132 42135 42138 42141 42144 
42147 42150 42153 42156 42159 42162 42165 42168 42171 
42174 42177 42180 42183 42186 42189 42192 42195 42198 
42201 42204 42207 42210 42213 42216 42219 42222 42225 
42228 42231 42234 42237 42240 42243 42246 42249 42252 
42255 42258 42261 42264 42267 42270 42273 42276 42279 
42282 42285 42288 42291 42294 42297 42300 42303 42306 
42309 42312 42315 42318 42321 42324 42327 42330 42333 
42336 42339 42342 42345 42348 42351 42354 42357 42360 
42363 42366 42369 42372 42375 42378 42381 42384 42387 
42390 42393 42396 42399 42402 42405 42408 42411 42414 
42417 42420 42423 42426 42429 42432 42435 42438 42441 
42444 42447 42450 42453 42456 42459 42462 42465 42468 
42471 42474 42477 42480 42483 42486 42489 42492 42495 
42498 42501 42504 42507 42510 42513 42516 42519 42522 
42525 42528 42531 42534 42537 42540 42543 42546 42549 
42552 42555 42558 42561 42564 42567 42570 42573 42576 
42579 42582 42585 42588 42591 42594 42597 42600 42603 
42606 42609 42612 42615 42618 42621 42624 42627 42630 
42633 42636 42639 42642 42645 42648 42651 42654 42657 
42660 42663 42666 42669 42672 42675 42678 42681 42684 
42687 42690 42693 42696 42699 42702 42705 42708 42711 
42714 42717 42720 42723 42726 42729 42732 42735 42738 
42741 42744 42747 42750 42753 42756 42759 42762 42765 
42768 42771 42774 42777 42780 42783 42786 42789 42792 
42795 42798 42801 42804 42807 42810 42813 42816 42819 
42822 42825 42828 42831 42834 42837 42840 42843 42846 
42849 42852 42855 42858 42861 42864 42867 42870 42873 
42876 42879 42882 42885 42888 42891 42894 42897 42900 
42903 42906 42909 42912 42915 42918 42921 42924 42927 
42930 42933 42936 42939 42942 42945 42948 42951 42954 
42957 42960 42963 42966 42969 42972 42975 42978 42981 
42984 42987 42990 42993 42996 42999 43002 43005 43008 
43011 43014 43017 43020 43023 43026 43029 43032 43035 
43038 43041 43044 43047 43050 43053 43056 43059 43062 
43065 43068 43071 43074 43077 43080 43083 43086 43089 
43092 43095 43098 43101 43104 43107 43110 43113 43116 
43119 43122 43125 43128 43131 43134 43137 43140 43143 
43146 43149 43152 43155 43158 43161 43164 43167 43170 
43173 43176 43179 43182 43185 43188 43191 43194 43197 
43200 43203 43206 43209 43212 43215 43218 43221 43224 
43227 43230 43233 43236 43239 43242 43245 43248 43251 
43254 43257 43260 43263 43266 43269 43272 43275 43278 
43281 43284 43287 43290 43293 43296 43299 43302 43305 
43308 43311 43314 43317 43320 43323 43326 43329 43332 
43335 43338 43341 43344 43347 43350 43353 43356 43359 
43362 43365 43368 43371 43374 43377 43380 43383 43386 
43389 43392 43395 43398 43401 43404 43407 43410 43413 
43416 43419 43422 43425 43428 43431 43434 43437 43440 
43443 43446 43449 43452 43455 43458 43461 43464 43467 
43470 43473 43476 43479 43482 43485 43488 43491 43494 
43497 43500 43503 43506 43509 43512 43515 43518 43521 
43524 43527 43530 43533 43536 43539 43542 43545 43548 
43551 43554 43557 43560 43563 43566 43569 43572 43575 
43578 43581 43584 43587 43590 43593 43596 43599 43602 
43605 43608 43611 43614 43617 43620 43623 43626 43629 
43632 43635 43638 43641 43644 43647 43650 43653 43656 
43659 43662 43665 43668 
CONNECTIVITY vtktypeint64
0 1 2 0 3 4 5 6 7 
5 8 9 10 11 12 10 13 14 
15 16 17 15 18 19 20 21 22 
20 23 24 25 26 27 25 28 29 
30 31 32 33 34 35 33 36 37 
38 39 40 38 41 42 43 44 45 
43 41 46 47 48 49 47 50 51 
52 53 54 52 55 56 57 58 59 
60 61 57 62 63 64 65 66 62 
67 68 69 67 70 71 72 73 74 
72 75 76 77 78 79 77 80 81 
82 83 84 82 85 86 87 88 89 
87 90 91 92 93 94 92 95 96 
97 98 99 97 100 101 102 103 104 
102 105 106 107 108 109 107 110 111 
112 113 114 112 115 116 117 118 114 
117 113 119 120 121 122 120 123 124 
125 126 127 125 128 129 130 131 132 
130 133 134 135 136 137 135 138 139 
140 141 142 140 143 144 145 146 147 
145 148 149 150 151 152 150 153 154 
155 156 157 155 158 159 160 161 162 
162 163 164 165 166 167 167 168 169 
170 165 171 172 173 170 174 175 176 
176 177 178 179 180 181 181 182 183 
184 185 186 187 184 188 189 190 191 
191 192 193 194 195 196 196 85 84 
197 194 198 199 197 200 201 202 203 
203 204 205 206 207 208 208 209 210 
211 212 213 213 214 215 216 217 218 
219 220 216 221 222 223 224 221 225 
226 103 227 226 228 152 229 230 231 
232 233 229 234 235 236 236 237 238 
239 240 241 242 239 243 244 245 246 
247 248 244 249 250 251 251 146 149 
252 253 254 255 252 256 257 258 254 
259 260 257 261 262 263 264 265 261 
266 267 268 269 266 270 271 272 273 
274 271 275 276 277 268 278 279 276 
280 281 282 283 280 284 285 286 287 
286 288 289 290 291 292 290 293 294 
295 296 297 297 298 299 300 301 302 
303 304 300 305 306 307 308 309 305 
310 311 312 312 313 314 315 316 307 
315 317 318 319 142 320 309 143 319 
321 322 144 323 324 321 325 326 327 
326 328 289 329 330 331 332 333 329 
330 334 335 334 333 16 336 337 338 
338 339 340 341 342 343 344 341 345 
346 347 348 349 350 346 351 352 353 
352 354 355 356 357 358 357 359 360 
361 362 363 364 365 361 366 367 368 
368 369 370 371 372 373 374 375 371 
376 377 378 379 339 380 380 337 381 
382 383 384 385 386 382 387 388 389 
390 387 391 392 393 394 395 392 396 
397 394 398 397 399 400 401 395 402 
393 401 403 404 405 406 379 404 339 
407 408 409 410 411 407 412 413 414 
415 412 416 417 418 134 417 3 419 
420 421 422 423 424 420 425 426 427 
428 429 425 430 431 432 433 432 434 
435 436 437 438 435 439 124 440 441 
442 443 441 444 445 446 446 447 243 
448 449 450 451 448 452 453 454 455 
456 457 453 458 459 460 461 462 458 
463 464 465 463 466 467 468 469 470 
471 472 468 473 474 475 474 476 477 
478 475 479 478 480 481 482 483 484 
485 482 486 487 488 489 487 490 491 
492 493 494 492 495 496 497 498 499 
497 500 501 502 503 504 505 506 502 
507 508 509 510 507 511 512 513 514 
515 512 516 517 518 519 518 520 521 
522 523 524 525 526 522 527 528 529 
525 527 526 530 531 532 532 533 376 
534 535 536 537 534 538 539 540 541 
542 539 543 544 545 546 547 548 544 
549 550 190 550 551 552 553 554 409 
555 556 553 555 557 558 559 560 561 
562 563 560 564 565 546 566 564 562 
410 567 411 567 568 569 570 571 572 
573 574 570 575 576 577 578 579 575 
580 581 582 583 580 584 585 586 584 
586 587 588 589 590 591 589 592 593 
594 595 596 594 597 598 599 600 601 
602 603 599 604 605 606 607 608 604 
609 610 611 607 612 611 613 614 615 
615 616 617 618 206 619 620 207 618 
621 622 623 621 624 625 626 627 628 
629 630 626 631 630 632 633 631 634 
635 17 332 18 635 636 637 638 639 
638 640 641 642 643 644 642 637 639 
645 640 574 645 573 646 647 648 649 
647 650 651 652 653 654 652 655 656 
657 658 659 660 657 661 662 663 664 
662 50 665 666 551 667 667 549 668 
669 670 671 669 672 673 674 675 569 
674 676 677 678 679 680 680 681 682 
683 684 685 684 686 180 687 688 323 
689 690 691 690 692 693 694 695 696 
697 698 694 699 700 701 702 703 699 
700 704 705 704 703 706 707 708 187 
707 709 710 711 712 710 711 713 714 
715 73 716 717 718 715 719 56 720 
721 53 719 722 723 724 723 54 53 
725 726 727 727 728 729 730 731 732 
733 734 730 735 736 737 738 739 735 
740 741 742 743 740 744 745 746 747 
745 748 749 750 174 751 750 747 746 
752 753 754 755 756 712 757 758 759 
760 761 757 762 763 764 765 763 762 
766 767 768 769 770 766 771 772 773 
774 771 775 776 777 778 779 780 781 
780 782 783 784 785 786 784 787 788 
789 790 791 791 792 793 794 795 796 
795 797 798 799 800 801 799 802 803 
804 805 801 804 792 806 806 792 790 
807 808 806 809 810 811 810 812 813 
814 815 816 814 817 818 819 820 821 
822 819 823 824 825 826 827 828 824 
829 830 831 832 833 829 834 835 836 
835 837 838 839 840 841 842 843 844 
845 846 842 847 688 848 847 849 850 
851 848 852 853 849 851 854 855 856 
854 857 858 859 860 861 862 863 859 
864 865 866 867 868 864 869 870 871 
42 869 39 872 873 874 875 876 872 
877 878 879 879 880 881 882 883 884 
882 885 886 887 888 889 890 891 887 
892 893 894 894 886 885 895 896 897 
895 898 899 900 901 902 903 904 900 
905 906 907 907 908 909 910 911 912 
910 913 914 915 916 917 918 919 915 
920 921 922 921 923 924 925 926 927 
928 929 925 930 931 932 932 933 934 
935 936 937 936 938 939 940 941 32 
942 940 943 944 945 946 947 948 944 
949 950 951 952 949 953 954 955 956 
957 958 954 959 960 961 959 962 963 
964 963 962 965 964 966 967 968 969 
967 970 971 972 973 974 972 975 976 
977 164 163 978 979 977 980 981 982 
980 983 984 985 219 868 985 867 870 
194 199 986 986 987 988 989 990 991 
992 993 994 992 995 996 997 998 999 
1000 1001 997 1002 1003 1004 1005 805 808 
1005 68 1006 1007 76 75 1007 1008 1009 
1010 1011 643 1010 639 1012 1013 1014 1015 
1013 1016 1017 1018 1019 1020 1018 1021 1022 
1023 1024 1025 1026 1027 1023 1028 1029 1030 
1028 1031 1032 1033 1034 1035 1034 1036 1037 
1038 1039 1040 1038 1041 1042 1043 439 1044 
438 1043 1045 1046 960 1047 1046 605 1048 
1049 1050 1051 1052 1049 1053 1054 1055 381 
1054 1056 1057 1058 1059 1060 1058 1061 1062 
1063 1064 1065 1066 1067 1068 1068 1069 1070 
1071 1072 1073 1074 1075 1076 1077 1078 1079 
1080 1081 832 1082 1083 1084 1082 1085 1086 
1082 1086 1087 1082 1087 1083 1082 1088 1085 
1089 1090 1091 1089 1092 1090 1089 1091 1093 
1089 1093 1094 1089 1094 1095 1089 1095 1092 
185 1096 1097 185 187 708 184 186 1098 
185 184 187 185 1099 186 185 1097 1099 
185 708 1096 1100 1101 1102 1100 1102 1103 
1100 1103 288 1104 1105 1106 1104 1107 198 
1104 198 1108 1104 1109 1105 1104 1108 1109 
1104 1106 1107 1110 1111 1112 1110 1113 1114 
1110 1115 1113 1110 1112 1115 1110 1116 1111 
1110 1114 1116 1117 1118 1119 1117 1120 1121 
1117 1121 1122 1117 1119 1120 1117 1122 1123 
1117 1123 1118 1124 1125 1126 1124 1126 1127 
1124 1127 1128 1124 225 1129 1124 1129 1125 
1124 1130 225 1124 1128 1130 234 1131 235 
234 1132 1133 234 1133 1134 234 1134 1131 
1132 234 236 1132 236 1135 1136 1137 240 
1136 250 1137 1136 147 146 1136 242 147 
1136 240 242 1136 146 250 1138 1139 1140 
1138 1141 1139 1138 1140 1142 1138 1142 1143 
1138 1144 1141 1138 1143 1144 258 1145 1146 
258 260 1147 258 1147 1145 258 257 260 
257 254 1148 258 1146 254 1149 1150 1151 
1149 1152 1153 1149 1151 1152 1149 1153 1154 
1149 1154 1150 324 1155 1156 324 688 1155 
324 323 688 1157 1158 1159 1157 1160 1161 
1157 1162 1160 1157 1161 1163 1157 1163 1158 
1157 1159 1162 1164 1165 1166 1164 1167 1168 
1164 1166 1167 1164 1169 1170 1164 1170 1165 
1164 1168 1169 1171 1172 1173 1171 1174 1175 
1171 1176 1174 1171 1173 1176 1171 1177 1172 
1171 1175 1177 1178 1179 1180 1178 1181 1182 
1178 1183 1179 1178 1182 1184 1178 1180 1181 
1178 1184 1183 1185 1186 1187 1185 1188 1186 
1185 345 1188 1185 344 345 1185 1189 344 
1185 1187 1189 1190 1191 1192 1190 1192 1193 
1190 1194 1191 1190 1193 1195 1190 1195 1196 
1190 1196 1194 1197 1198 1199 1197 1200 1198 
1197 1201 1202 1197 1202 1200 1197 1203 1201 
1197 1199 1203 395 396 1204 395 393 392 
401 402 1205 1206 396 392 395 401 393 
395 1204 402 336 1207 1056 336 1054 337 
336 1208 1207 1208 336 338 1208 338 1209 
1210 1211 1212 1210 1212 1213 1210 1214 1211 
1210 1213 1215 1210 1216 1214 1210 1215 1216 
1217 1218 1219 1217 1220 1221 1217 1222 1220 
1217 1223 1218 1217 1219 1222 1217 1221 1223 
1224 1225 1226 1224 1227 1225 1224 1228 1229 
1224 1230 1228 1224 1229 1227 1224 1226 1230 
1231 1232 1233 1231 1234 1232 1231 1235 1236 
1231 1236 1237 1231 1237 1234 1231 1233 1235 
1238 1239 1240 1238 1240 1241 1238 1241 1242 
1238 1243 1239 1238 1242 1244 1238 1244 1243 
1245 1246 1247 1245 1248 1246 1245 1247 1249 
1245 1250 1248 1245 1249 1251 1245 1251 1250 
1052 1053 1252 1052 1050 1049 1052 1252 1253 
1254 1053 1049 1052 1255 1050 1052 1253 1255 
1256 1257 1258 1256 1259 1260 1256 1260 1257 
1261 1262 1263 1261 1264 1262 1261 1265 1266 
1261 1266 1264 1261 1267 1265 1261 1263 1267 
1268 1269 1270 1268 1271 1269 1268 4 1271 
1268 1270 1272 0 4 1268 1272 1 0 
1272 0 1268 0 2 3 1273 424 1274 
1273 421 424 1273 1274 1275 1273 1275 1276 
1273 1276 1277 1273 1277 421 1278 1279 1280 
1278 1281 1282 1278 1283 1281 1278 1280 1283 
1278 1282 1279 1284 1285 1286 1284 1286 1287 
1284 1288 1289 1284 1290 1288 1284 1289 1285 
1284 1287 1290 1291 1292 1293 1291 1294 1295 
1291 1295 1069 1291 1067 1292 1291 1293 1294 
1291 1069 1067 1296 1297 1298 1296 1299 1300 
1296 1300 1301 1296 1301 1297 1296 1302 1299 
1296 1298 1302 1303 1304 122 1303 122 121 
1303 121 1305 1303 1306 1307 1303 1307 1304 
1303 1305 1306 1308 1309 1310 1308 1311 1312 
1308 1312 1313 1308 1310 1314 1308 1313 1309 
1308 1314 1311 481 1315 1316 481 480 1317 
481 1318 1315 481 1317 1318 478 481 1316 
789 489 790 1319 791 1320 1319 789 791 
789 1319 495 789 495 1321 789 1321 489 
1322 531 1323 1322 1324 1325 1322 1325 533 
1322 1323 1324 1322 533 531 1326 1327 1328 
1326 1329 1327 1326 1328 1330 1326 1331 1332 
1326 1332 1329 1326 1330 1331 1333 1334 1335 
1333 1336 1334 1333 1337 1338 1333 1338 1336 
1333 1335 1339 1333 1339 1337 1340 1341 1342 
1340 1343 1344 1340 1345 1343 1340 1342 1346 
1340 1344 1341 1340 1346 1345 1347 1348 1349 
1347 1350 1351 1347 1352 1353 1347 1353 1348 
1347 1351 1352 1347 1349 1350 1354 1355 1356 
1354 1357 1358 1354 1359 1357 1354 1360 1359 
1354 1358 1355 1354 1356 1360 1361 1362 1363 
1361 1364 1365 1361 1365 1362 1366 1367 1368 
1366 1369 911 1366 1370 1369 1366 910 1367 
1366 1368 1370 1371 1372 1373 1371 1374 1375 
1371 1375 1372 1371 1376 1377 1371 1373 1376 
1371 1377 1374 5 9 6 5 7 1378 
1378 1379 1380 1378 7 1381 1378 1382 1379 
1378 1381 1382 1380 8 5 1380 5 1378 
1383 1384 110 1383 1385 1384 1383 1386 1387 
1383 110 1386 1383 1387 1388 1383 1388 1385 
407 409 1389 408 1390 409 408 565 1390 
408 407 411 408 1391 565 408 411 1391 
1392 1393 1394 1392 1394 1395 1392 1396 1397 
1392 1395 1396 1392 1397 1393 1398 1399 1400 
1398 1401 1402 1398 1403 1401 1398 1402 1399 
1398 1400 1404 1398 1404 1403 1405 1406 1407 
1405 1408 1406 1405 1409 1410 1405 1410 1411 
1405 1407 1409 1405 1411 1408 1412 1413 106 
1412 1414 1413 1412 1415 1416 1412 106 1415 
1412 1417 1414 1412 1416 1417 1418 1419 1420 
1418 1421 1422 1418 1422 1419 1418 1420 1423 
1418 1424 1421 1418 1423 1424 1425 1426 1427 
1425 1428 1429 1425 1429 1430 1425 1427 1428 
1425 1430 1431 1425 1431 1426 1432 1433 1434 
1432 1435 1436 1432 1437 1435 1432 1438 1433 
1432 1434 1437 1432 1436 1438 1439 1440 1441 
1439 1442 883 1439 1443 1440 1439 1441 1442 
1439 882 1443 1444 1445 1446 1444 1446 1447 
1444 1447 1448 1444 1449 1445 1444 1450 1449 
1444 1448 1450 1451 1452 1453 1451 1453 1454 
1451 1454 1455 1451 1456 1452 1451 1455 616 
1451 616 1456 1457 1458 1459 1457 1459 1460 
1457 1461 1462 1457 1463 1461 1457 1460 1463 
1457 1462 1458 1464 1465 1466 1464 1467 1468 
1464 1469 1467 1464 1466 1470 1464 1470 1469 
1464 1468 1465 1471 1472 1473 1471 1474 1472 
1471 1475 1476 1471 1477 1475 1471 1473 1477 
1471 1476 1474 1478 1479 1480 1478 1481 1482 
1478 1480 1483 1478 1483 1481 1478 1484 1479 
1478 1482 1484 1485 629 1486 1485 1486 1487 
1485 632 629 1485 631 632 1485 1015 631 
1485 1487 1015 1488 12 1489 1488 1489 1490 
1488 1490 1491 10 14 11 1492 10 1488 
1488 1491 1492 10 12 1488 1492 13 10 
1493 1494 1495 1493 1496 1497 1493 623 1496 
1493 1495 624 621 1493 624 1493 1497 1494 
1498 1499 1500 1498 1500 1501 1498 1502 1503 
1498 1504 1502 1498 1501 1504 1498 1503 1499 
1505 1506 1507 1505 1508 1509 1505 1510 1508 
1505 1509 1511 1505 1507 1510 1505 1511 1506 
1512 1513 1514 1512 1515 1516 1512 1516 1517 
1512 1518 1513 1512 1517 1518 1512 1514 1515 
1519 1520 1521 1519 1521 1522 1519 1523 1524 
1519 1525 1523 1519 1524 1520 1519 1522 1525 
1526 1527 1528 1526 1529 1530 1526 1528 1531 
1526 1532 1529 1526 1531 1532 1526 1530 1527 
1533 19 1534 1533 1534 1535 1536 16 15 
15 19 1533 1536 15 1533 1533 1535 1537 
1533 1537 1536 15 17 18 1538 1539 1540 
1538 1541 1542 1538 1540 1543 1538 1544 1539 
1538 1542 1544 1538 1543 1541 1545 1546 1547 
1545 1547 1548 1545 1549 1550 1545 1550 1551 
1545 1551 1546 1545 1548 1549 1552 1553 1554 
1552 1554 1555 1552 1010 1553 1552 1556 1011 
1552 1555 1556 1557 1558 1559 1557 1560 1561 
1557 1559 1560 1557 1562 1558 1557 1563 1562 
1557 1561 1563 1564 1565 1566 1564 1567 1568 
1564 1569 1570 1564 1570 1565 1564 1566 1567 
1564 1568 1569 1571 1572 1573 1571 1574 1572 
1571 1575 1574 1571 1576 1577 1571 1577 1575 
1571 1573 1576 1578 1579 1580 1578 1580 1581 
1578 1581 1582 1578 1583 1579 1578 1584 1583 
1578 1582 1584 1585 1586 1587 1585 1588 1589 
1585 1589 1590 1585 1590 1586 1585 1587 1591 
1585 1591 1588 1009 1592 1593 1009 1008 1592 
1009 1594 1595 1007 1009 1595 1009 1593 1594 
1596 1597 1598 1596 1599 1600 1596 1600 1601 
1596 1598 1602 1596 1602 1599 1596 1601 1597 
1603 1604 1605 1603 1605 1606 1603 1607 1604 
1603 1608 1607 1603 1609 1608 1603 1606 1609 
1610 1611 1612 1610 1612 1613 1610 1614 1615 
1610 1615 1611 1610 1613 1616 1610 1616 1614 
1617 1618 1619 1617 1620 738 1617 738 1618 
1617 1621 1622 1617 1619 1621 1617 1622 1620 
731 1623 702 730 732 1624 731 730 734 
731 702 732 731 734 1625 731 1625 1623 
1626 1627 1628 1626 1629 1627 1626 1630 1631 
1626 1632 1630 1626 1628 1632 1626 1631 1629 
1633 1634 1635 1633 1636 1637 1633 1637 1638 
1633 1639 1634 1633 1638 1639 1633 1635 1636 
1640 1641 1642 1640 1643 1641 1640 1644 1643 
1640 1645 1644 1640 1642 1646 1640 1646 1645 
1647 1648 1649 1647 1650 1648 1647 1651 1650 
1647 1652 1651 1647 1649 1653 1647 1653 1652 
1654 1655 1656 1654 1657 1658 1654 1658 1659 
1654 1659 1660 1654 1656 1657 1654 1660 1655 
1661 1662 1663 1661 1663 1664 1661 1665 1662 
1661 1664 1666 1661 1667 1665 1661 1666 1667 
1668 1669 1670 1668 1671 1669 1668 1670 1672 
1668 1673 1671 1668 1674 1673 1668 1672 1674 
1675 1676 1677 1675 1678 1679 1675 1680 1676 
1675 1679 1680 1675 1677 1681 1675 1681 1678 
1682 1683 1684 1682 1685 1686 1682 1687 1685 
1682 1688 1683 1682 1686 1688 1682 1684 1687 
1689 1690 1691 1689 1692 1690 1689 1693 1694 
1689 1695 1693 1689 1691 1695 1689 1694 1692 
1696 1697 811 1696 1698 1699 1696 1700 1701 
1696 811 1700 1696 1699 1697 1696 1701 1698 
1702 1703 1704 1702 1705 1706 1702 1704 1707 
1702 1708 1703 1702 1706 1708 1702 1707 1705 
1709 816 1710 1709 1711 1712 1709 1712 816 
1713 1714 1715 1713 1715 1000 1713 997 1716 
1713 1717 1714 1713 1716 1717 1718 1719 1720 
1718 1721 1722 1718 1720 1723 1718 1722 1719 
1718 1724 1721 1725 1726 1727 1725 1727 1728 
1725 1729 1730 1725 1728 1729 1725 1731 1726 
1725 1730 1731 1732 1733 1734 1732 1735 1736 
1732 1737 1735 1732 1736 1733 1732 1734 1738 
1732 1738 1737 1739 1740 1741 1739 1742 845 
1739 1741 1742 1739 842 1743 1739 1743 1740 
1744 1745 1746 1744 1746 1747 1744 1748 1745 
1744 1749 1748 1744 1750 1749 1744 1747 1750 
20 24 21 1751 682 681 1751 1752 1753 
1751 22 1752 20 22 1751 1751 1753 682 
681 23 20 681 20 1751 1754 1755 1756 
1754 1756 1757 1754 1757 1758 1754 1759 1755 
1754 51 1759 1754 1758 51 870 867 871 
985 870 1760 870 42 1760 870 869 42 
869 871 1761 1762 1763 983 1762 980 1764 
1762 1764 978 1762 977 1763 1765 1766 1767 
1765 1768 1769 1765 1769 1770 1765 1767 1771 
1765 1771 1768 1765 1770 1766 1772 1773 1774 
1772 1775 1776 1772 1774 1777 1772 1778 1775 
1772 1776 1773 1772 1777 1778 1779 26 25 
1780 1781 1782 1780 29 1783 25 29 1780 
1780 1783 1781 1780 1782 1779 1779 25 1780 
25 27 28 1784 1785 1786 1784 1787 1788 
1784 1789 1785 1784 1786 1790 1784 1790 1787 
1784 1788 1789 1791 1792 1793 1791 1794 1792 
1791 1793 1795 1791 1796 1797 1791 1795 1796 
1791 1797 1794 1798 1799 1800 1798 1801 1799 
1798 1802 1801 1798 1803 1802 1798 1804 1803 
1798 1800 1804 1805 1806 1807 1805 1807 1808 
1805 1809 1810 1805 1811 1809 1805 1810 1806 
1805 1808 1811 1812 923 920 1812 1813 923 
1812 920 1814 1812 1814 1815 1812 1816 1813 
1812 1815 1816 1817 1818 1819 1817 1819 1820 
1817 1821 1822 1817 1823 1821 1817 1820 1823 
1817 1822 1818 1824 1825 1826 1824 1827 1828 
1824 1828 1829 1824 1830 1827 1824 1829 1825 
1824 1826 1830 1831 1832 1833 1831 1834 1832 
1831 1835 1836 1831 1836 1837 1831 1837 1834 
964 962 1838 959 963 1839 963 964 965 
963 1840 1839 963 965 1840 1841 1842 1843 
1841 1843 1844 1841 1845 1846 1841 1846 1842 
1841 954 1845 957 1847 958 957 954 1844 
957 962 961 957 1844 1838 957 1838 962 
957 961 1847 1848 1849 1850 1848 1851 1832 
1848 1832 1852 1848 1853 1851 1848 1852 1849 
1848 1850 1853 1854 1836 1855 1854 1856 1836 
1854 1857 1858 1854 1858 1856 1859 1860 1861 
1859 1862 1863 1859 1861 1862 1859 1863 1864 
1859 1864 1865 1859 1865 1860 1866 1867 1868 
1866 1869 1867 1866 1868 1860 1866 1860 1870 
1866 1870 1871 1866 1871 1869 1872 1873 1874 
1872 1828 1875 1872 1876 1828 1872 1877 1873 
1872 1875 1877 1872 1874 1876 952 1827 1878 
952 1875 1827 952 950 949 1879 953 949 
952 953 1875 952 1878 950 1880 1881 1882 
1880 1862 1883 1880 1829 1876 1880 1876 1881 
1880 1882 1862 1880 1883 1829 1884 1885 1886 
1884 1887 1885 1884 1888 1867 1884 1867 1889 
1884 1889 1887 1884 1886 1888 946 945 1890 
946 31 30 946 1890 31 944 946 1891 
946 30 1891 1892 30 1893 1893 32 320 
1893 320 142 1893 142 141 1893 141 1892 
30 32 1893 1892 1894 30 1895 1896 1897 
1895 1897 1898 1895 1899 1900 1895 1900 1896 
1895 1898 1899 1901 1902 1899 1901 266 1903 
1901 1903 1904 1901 1904 1902 1901 1899 270 
1905 1906 1821 1905 1907 1908 1905 1821 1909 
1905 1910 1907 1905 1908 1906 1905 1909 1910 
1911 1161 1912 1911 1912 1909 1911 1913 1914 
1911 1909 1823 1911 1914 1161 1911 1823 1913 
937 1915 942 935 1822 1906 935 1916 1822 
935 938 936 935 1906 938 935 937 1916 
1917 1918 1919 1917 1920 1918 1917 1921 1922 
1917 1922 1923 1917 1919 1921 1917 1923 1920 
1924 1925 1926 1924 1927 1925 1924 1928 1929 
1924 1929 1927 1924 1930 1928 1924 1926 1930 
1931 1932 1933 1931 1934 1932 1931 1935 1936 
1931 1923 1935 1931 1933 1923 1931 1936 1934 
1937 928 1938 1937 1939 928 1937 1940 1941 
1937 1942 1940 1937 1938 1942 1937 1941 1939 
1943 1944 1945 1943 1946 1944 1943 1947 1948 
1943 1945 1942 1943 1948 1946 1943 1942 1947 
1949 1950 1951 1949 1952 1950 1949 1951 1953 
1949 1954 1955 1949 1955 1952 1949 1953 1954 
1956 1957 1958 1956 1939 1959 1956 1959 1960 
1956 1961 1957 1956 1960 1961 1956 1958 1939 
1962 1963 1964 1962 1965 1963 1962 1966 1967 
1962 1967 1965 1962 1964 1961 1962 1961 1966 
934 1968 1928 934 1969 1970 934 1928 1969 
934 1970 1971 932 934 1971 934 933 1968 
1972 930 932 1972 932 1971 930 1948 1973 
930 1972 1974 930 1974 1948 930 1973 931 
1975 1976 1977 1975 1978 1979 1975 1979 1976 
1975 1977 1980 1975 1980 1918 1975 1918 1978 
1981 1982 1983 1981 1984 1982 1981 1983 1978 
1981 1933 1984 1981 1920 1933 1981 1978 1920 
1985 1986 1963 1985 1987 1988 1985 1963 1987 
1985 1983 1986 1985 1988 1979 1985 1979 1983 
924 923 1989 924 1057 1056 924 1056 1990 
921 924 1990 924 1989 1057 1991 1992 1993 
1991 1994 1995 1991 1996 1997 1991 1993 1994 
1991 1995 1996 1991 1997 1992 1998 1999 917 
1998 2000 2001 1998 2001 2002 1998 917 916 
1998 916 2000 1998 2002 1999 2003 2004 2005 
2003 2006 2007 2003 2008 2004 2003 2009 2006 
2003 2005 2009 2003 2007 2008 2010 2011 2012 
2010 2013 2011 2010 2014 2015 2010 2012 2014 
2010 2016 2013 2010 2015 2016 2017 2018 2019 
2017 2019 2013 2017 2013 2020 2017 2020 2021 
2017 2021 2018 2022 2023 2024 2022 1808 2025 
2022 2025 2023 2022 2024 2018 2022 2026 1808 
2022 2018 2026 2027 2012 2028 2027 1997 1221 
2027 2028 1997 2029 2030 2031 2029 2032 2030 
2029 2033 2032 2029 2034 2033 2029 2035 2034 
2029 2031 2035 2036 2031 2037 2036 2038 1815 
2036 1815 2039 2036 2037 2040 2036 2039 2031 
2036 2040 2038 2041 2042 2043 2041 2044 2045 
2041 2046 2042 2041 2045 2000 2041 2043 2044 
2041 2000 2046 2047 2048 2049 2047 2049 2050 
2047 2051 2048 2052 1252 2053 2052 2054 2055 
2052 2056 2057 2052 2053 2054 2052 2057 1252 
2052 2055 2056 914 2058 1367 914 913 1804 
914 1804 2059 914 2059 2058 910 914 1367 
2060 2061 1801 2060 2062 2063 2060 2064 2061 
2060 1801 2062 2060 2065 2064 2060 2063 2065 
2066 2067 2068 2066 2069 2067 2066 2070 2071 
2066 2072 2070 2066 2071 2069 2066 2068 2072 
2073 2074 2075 2073 2075 2076 2073 2077 2063 
2073 2063 2074 2073 2078 2077 2073 2076 2078 
2079 2080 233 2079 2081 2076 2079 1379 2081 
2079 232 1379 2079 233 232 2079 2076 2080 
2082 2083 2084 2082 2084 2085 2082 2086 2087 
2082 2088 2083 2082 2087 2088 2082 2085 2086 
2089 2085 2090 2089 2091 2085 2089 2067 2091 
2089 2090 2092 2089 2092 2093 2089 2093 2067 
2094 2095 2096 2094 2097 2095 2094 2098 2099 
2094 2099 2100 2094 2096 2098 2094 2100 2097 
2101 1797 1796 2101 2102 2103 2101 1796 2104 
2101 2105 1797 2101 2103 2105 2101 2104 2102 
2106 1794 2105 2106 1420 2107 2106 2108 1420 
2106 2109 1794 2106 2107 2109 2106 2105 2108 
2110 2111 1792 2110 1792 2109 2110 1409 2112 
2110 2113 1409 2110 2112 2111 2110 2109 2113 
2114 2115 2116 2114 2117 2118 2114 2118 2119 
2114 2116 2120 2114 2120 2117 2114 2119 2115 
2121 2122 2123 2121 2124 2122 2121 2116 2125 
2121 2125 2126 2121 2126 2124 2121 2123 2116 
2127 1445 2128 2127 2129 2130 2127 2131 1445 
2127 2130 2131 2127 2128 2132 2127 2132 2129 
2133 2134 2120 2133 2120 2123 2133 2135 2136 
2133 2136 2134 2133 2137 2135 2133 2123 2137 
2138 2139 2140 2138 2134 2139 2138 2141 2142 
2138 2142 2117 2138 2140 2141 2138 2117 2134 
2143 2144 1788 2143 2145 2144 2143 2146 27 
2143 1788 2147 2143 2147 2146 2143 27 2145 
2148 2149 28 2148 2150 2151 2148 2146 2152 
2148 2152 2150 2148 2151 2149 2148 28 2146 
2153 1783 29 2153 2154 2155 2153 29 2149 
2153 2156 2154 2153 2155 1783 2153 2149 2156 
2157 2158 2159 2157 2160 903 2157 2159 2161 
2157 900 2158 2157 2161 2160 901 2162 902 
901 2163 2162 901 900 904 901 2140 2163 
900 902 2158 901 904 2140 2164 902 2165 
2164 2166 2158 2164 2158 902 2164 2165 2167 
2164 905 2166 2164 2167 905 2168 2169 2159 
2168 2170 2171 2168 2172 2170 2168 2171 2169 
2168 2159 2166 2168 2166 2172 2173 2174 2175 
2173 2175 2176 2173 1774 2177 2173 2178 1774 
2173 2177 2174 2173 2176 2178 2179 2177 1773 
2179 1449 2180 2179 1773 2181 2179 2128 1449 
2179 2180 2177 2179 2181 2128 2182 2183 1778 
2182 1785 2184 2182 1778 2185 2182 2186 1785 
2182 2184 2183 2182 2185 2186 899 898 2185 
895 899 2187 899 1777 2178 899 2178 2187 
899 2185 1777 2188 2189 2190 2188 2191 2192 
2188 2190 2193 2188 2193 2191 2188 2194 2189 
2188 2192 2194 2195 2196 2197 2195 2198 2199 
2195 2200 2196 2195 2199 2200 2195 2197 2198 
2201 2202 1452 2201 1452 2203 2201 2204 2205 
2201 2206 2204 2201 2205 2202 2201 2203 2206 
2207 2208 2209 2207 2209 2210 2207 2211 2192 
2207 2192 2212 2207 2212 2208 2207 2210 2211 
2213 2214 890 2213 887 2215 2213 2216 2217 
2213 2215 2216 2213 2217 2214 2218 205 2219 
2218 890 2220 2218 2220 205 2218 2221 891 
2218 2219 2221 2218 891 890 2222 2223 2224 
2222 2225 2226 2222 1495 2223 2222 2227 2225 
2222 2224 2227 2222 2226 1495 2228 2229 2230 
2228 2225 2229 2228 2231 1479 2228 1479 2232 
2228 2230 2231 2228 2232 2225 2233 1475 2234 
2233 2230 2235 2233 2235 2236 2233 2237 1475 
2233 2236 2237 2233 2234 2230 2238 2239 2240 
2238 2241 2239 2238 2242 2243 2238 2243 2241 
2238 2244 2242 2238 2240 2244 892 2245 2246 
2216 892 894 2216 894 2217 892 2241 893 
892 2216 2245 892 2246 2241 2247 1500 2248 
2247 2248 2249 2247 2250 2251 2247 2251 1500 
2247 2249 2252 2247 2252 2250 2253 2223 1494 
2253 2254 2255 2253 2250 2254 2253 2255 2223 
2253 1494 2256 2253 2256 2250 2257 1770 2258 
2257 2259 1535 2257 34 1770 2257 1535 2260 
2257 2258 2259 2257 2260 34 2261 2262 2263 
2261 1769 2262 2261 2258 1769 2261 2264 2265 
2261 2265 2258 2261 2263 2264 2266 2262 1768 
2266 2267 2262 2266 2268 2269 2266 2269 2270 
2266 1768 2268 2266 2270 2267 2271 983 2272 
2271 2273 1524 2271 1524 2274 2271 984 983 
2271 2274 984 2271 2272 2273 2275 2276 2277 
2275 2277 877 2275 2278 2279 2275 2279 2276 
2275 879 2278 2280 860 863 2280 35 2260 
2280 1534 860 2280 2260 1534 2280 863 2281 
2280 2281 35 2282 2283 2284 1766 33 2282 
2282 1767 1766 2282 2284 1767 2282 37 2283 
33 37 2282 1766 34 33 33 35 36 
873 2285 878 873 878 877 872 874 2286 
873 872 876 873 877 874 873 876 2285 
160 875 161 160 2287 2288 2287 162 2289 
2287 160 162 160 876 875 160 2288 876 
2290 2291 2292 2290 874 2277 2290 2277 2291 
2290 2292 2293 2290 2286 874 2290 2293 2286 
2294 2295 1520 2294 2296 2297 2294 2297 2295 
2294 2273 2298 2294 1520 2273 2294 2298 2296 
2299 1761 871 2299 1771 2300 2299 2268 1771 
2299 871 2301 2299 2300 1761 2299 2301 2268 
38 42 39 2302 40 2303 46 41 38 
38 40 2302 2302 988 987 2302 2303 988 
46 38 2302 2302 987 46 2304 987 199 
2304 200 2305 2305 44 43 2304 199 200 
2304 46 987 2305 43 2304 43 46 2304 
43 45 41 198 194 196 195 986 2306 
195 194 986 194 197 199 197 198 1107 
198 196 1108 2307 979 978 2307 978 2308 
2307 2308 2309 2307 2310 979 2307 2309 2310 
2311 40 2312 2311 2312 2313 2311 2313 2314 
2311 2303 40 2311 2310 2303 2311 2314 2310 
666 2315 2316 666 2317 551 666 2316 2318 
2315 667 2319 2315 666 667 666 2318 2317 
47 51 48 2320 2321 665 2320 2322 2323 
2320 49 2322 47 49 2320 2320 2323 2321 
665 50 47 665 47 2320 2324 2325 2326 
2324 2327 2328 2324 2328 2329 2324 2329 2330 
2324 2326 2327 2324 2330 2325 2331 2332 2333 
2331 2334 2332 2331 2333 2335 2331 2335 2336 
2331 2337 2334 2331 2336 2337 2338 2339 2340 
2338 2340 2341 2338 2336 2342 2338 2342 2339 
2338 2343 2336 2338 2341 2343 2344 2345 856 
2344 678 2346 2344 2346 568 2344 856 2347 
2344 2347 678 2344 568 2345 855 2340 2348 
855 2348 2349 854 856 2345 855 854 858 
855 858 2340 855 2349 856 2350 1752 22 
2350 1170 2351 2350 22 2352 2350 2353 1170 
2350 2351 1752 2350 2352 2353 2354 2355 1746 
2354 1176 2356 2354 1746 2357 2354 2358 1176 
2354 2357 2358 2354 2356 2355 2359 2360 2333 
2359 2361 2362 2359 2363 2361 2359 2333 2364 
2359 2362 2360 2359 2364 2363 2365 2366 2367 
2365 2368 2352 2365 21 2366 2365 2367 2369 
2365 2369 2368 2365 2352 21 2370 2371 2372 
2370 2373 2371 2370 2374 1747 2370 1747 2355 
2370 2372 2374 2370 2355 2373 2375 1173 262 
2375 2373 2356 2375 265 2376 2375 262 265 
2375 2356 1173 2375 2376 2373 2377 2378 2379 
2377 2379 2380 2377 2381 853 2377 851 2378 
2377 2380 2381 2382 2383 2384 2382 2385 2386 
2382 2386 2387 2382 2384 2385 2382 2387 2388 
2382 2388 2383 2389 2390 2384 2389 2384 2391 
2389 2391 2392 2389 2392 2393 2389 2393 2394 
2389 2394 2390 2395 2396 2397 2395 2398 2399 
2395 2397 2398 2395 2400 2396 2395 2393 2400 
2395 2399 2393 2401 1740 2402 2401 2403 1740 
2401 2404 2405 2401 2405 2403 2401 2406 2404 
2401 2402 2406 2407 2408 2409 2407 2410 1641 
2407 2409 1742 2407 1742 2411 2407 1641 2408 
2407 2411 2410 2412 2411 1741 2412 1741 2403 
2412 2413 2414 2412 2415 2413 2412 2403 2415 
2412 2414 2411 2416 2417 2418 2416 2419 2420 
2416 2421 2422 2416 2422 2417 2416 2418 2419 
2416 2420 2421 2423 2424 2425 2423 2418 2424 
2423 2426 2427 2423 2425 2426 2423 2428 2418 
2423 2427 2428 2429 765 2430 2429 2431 763 
2429 2432 2431 2429 2433 2434 2429 2430 2433 
2429 2434 2432 2429 763 765 2435 2434 2436 
2435 2436 2437 2435 2438 2434 2435 54 2438 
52 56 53 52 54 2435 2437 55 52 
2437 52 2435 2439 2440 55 2439 55 2437 
2439 2441 2442 2439 2442 2426 2439 2426 2440 
2439 2437 2441 2443 2444 2445 2443 2446 2447 
2443 2447 2448 2443 2448 2444 2443 2445 2449 
2443 2449 2446 2450 2451 2452 2450 2445 2453 
2450 2453 2454 2450 2452 2445 2450 2454 2451 
2455 2456 2457 2455 2458 2459 2455 2459 2460 
2455 2457 2458 2455 2460 2461 2455 2461 2456 
2462 2463 2464 2462 2465 2446 2462 2446 2466 
2462 2464 2467 2462 2467 2465 2462 2466 2463 
2468 2469 2470 2468 2471 2469 2468 2470 2472 
2468 2473 2471 2468 2472 2474 2468 2474 2473 
2475 2476 2477 2475 2478 2479 2475 2480 2481 
2475 2481 2478 2475 2477 2480 2475 2479 2476 
2482 2459 2483 2482 2469 2484 2482 2483 2469 
2482 2485 2459 2482 1737 2485 2482 2484 1737 
2486 2487 2478 2486 2488 2457 2486 2457 2489 
2486 1628 2487 2486 2478 2488 2486 2489 1628 
2490 2491 2464 2490 2492 2473 2490 2473 2493 
2490 2464 2492 2490 2494 2491 2490 2493 2494 
2495 2496 2497 2495 2497 2498 2495 2499 2500 
2495 2498 1652 2495 1652 2499 2495 2500 2496 
2501 839 2502 2501 2503 2504 2501 2502 2503 
2501 2505 2506 2501 2504 2505 2507 2508 2509 
2507 2510 2508 2507 2511 2510 2507 2509 2512 
2507 1517 2511 2507 2512 1517 2513 2514 2515 
2513 2504 2516 2513 2516 2500 2513 2515 2517 
2513 2517 2504 2513 2500 2514 2518 2519 2520 
2518 2521 2522 2518 2523 2521 2518 2524 2519 
2518 2522 2524 2518 2520 2523 839 841 2502 
841 2525 2526 841 2526 2527 841 2527 2502 
841 840 2525 2528 2526 2529 2528 2530 2531 
2528 2531 2532 2528 2533 2526 2528 2529 2530 
2528 2532 2533 2534 2535 2536 2534 2527 2533 
2534 2536 2537 2534 2537 2527 2534 2533 2538 
2534 2538 2535 2539 2540 2541 2539 2542 2543 
2539 2544 2542 2539 2543 2545 2539 2545 2540 
2539 2541 2544 2546 2547 2548 2546 2540 2549 
2546 2522 2547 2546 2549 2522 2546 2548 2550 
2546 2550 2540 2551 2524 2549 2551 2552 2553 
2551 2553 2554 2551 2554 2524 2551 2545 2552 
2551 2549 2545 2555 2556 2557 2555 2557 834 
2558 2529 2525 2558 2559 2560 2558 2560 2529 
2558 2561 2559 2558 2525 2561 2562 2563 2564 
2562 2564 2560 2565 2557 2559 2565 2559 2566 
2565 2566 2567 2565 837 2557 2565 2567 837 
2568 2569 2570 2568 2571 2572 2568 2573 2571 
2568 2574 2569 2568 2572 2574 2568 2570 2573 
2575 2576 2542 2575 2577 2578 2575 2542 2577 
2575 2579 2576 2575 2578 2571 2575 2571 2579 
2580 2567 2581 2580 2573 838 2580 2582 2579 
2580 2581 2582 2580 2579 2573 2580 838 2567 
2583 2584 2572 2583 2585 2586 2583 2587 2585 
2583 2586 2584 2583 2578 2587 2583 2572 2578 
994 2588 2589 994 1708 2590 994 993 1708 
992 994 2589 994 2590 2588 2591 2592 2593 
2591 2594 2592 2591 2595 2596 2591 2593 2595 
2591 2596 2597 2591 2597 2594 2598 2599 2600 
2598 2601 2599 2598 2602 2603 2598 2600 2602 
2598 2603 2604 2598 2604 2601 2605 2604 2606 
2605 2607 2608 2605 2609 2610 2605 2610 2604 
2605 2606 2607 2605 2608 2609 2611 2612 2613 
2611 2614 2615 2611 2615 2616 2611 2616 2612 
2611 2607 2614 2611 2613 2607 2617 2618 2614 
2617 2614 2606 2617 2603 2619 2617 2606 2603 
2617 2619 2620 2617 2620 2618 2621 829 2622 
2621 2623 832 2621 2624 2625 2621 2622 2624 
2621 2625 2623 2626 2624 2627 2626 2627 2628 
2626 2629 2630 2626 2631 2624 2626 2630 2631 
2626 2628 2629 2632 2631 2633 2632 2625 2631 
2632 2623 2625 2634 1726 2635 2634 2636 1726 
2634 2637 2636 2634 2638 2637 2634 2639 2638 
2634 2635 2639 2640 2641 1527 2640 1731 2642 
2640 1527 2643 2640 2635 1731 2640 2642 2641 
2640 2643 2635 2644 2645 60 2644 2646 2642 
2644 2642 1730 2644 59 2646 2644 1730 2645 
2644 60 59 1081 1727 2636 1081 2647 1727 
1081 833 832 1081 2636 833 1081 1080 2647 
2648 2649 1721 2648 2650 2651 2648 2651 2652 
2648 1721 2653 2648 2652 2649 2654 2649 2655 
2654 2656 2657 2654 1722 2649 2654 2658 2656 
2654 2655 2658 2654 2657 1722 2659 2660 2601 
2659 2661 2662 2659 2662 2663 2659 2601 2610 
2659 2610 2661 2659 2663 2660 2664 2665 2666 
2664 2666 2667 2664 2668 2661 2664 2667 2668 
2664 2609 2665 2664 2661 2609 2669 1004 1003 
2669 1003 2665 2669 2665 2608 2669 2670 1004 
2669 2613 2670 2669 2608 2613 2671 2672 2673 
2671 828 2674 2671 2674 2672 2671 2673 2675 
2671 2675 825 2671 825 828 2676 2599 2660 
2676 2677 2678 2676 2678 2675 2676 2679 2599 
2676 2660 2677 2676 2675 2679 2680 2681 1717 
2680 1717 168 2680 2682 2683 2680 168 166 
2680 166 2682 2680 2683 2681 2684 1719 2657 
2684 2685 1719 2684 1000 2686 2684 2686 2685 
2684 1001 1000 2684 2657 1001 2687 2688 2689 
2687 2677 2663 2687 2690 2691 2687 2689 2690 
2687 2691 2677 2687 2663 2688 2692 2693 2694 
2692 2689 2695 2692 1078 2696 2692 2697 2693 
2692 2696 2697 2692 2695 1078 2692 2694 2689 
2698 2662 2668 2698 2668 2699 2698 1079 2695 
2698 2699 1079 2698 2695 2688 2698 2688 2662 
2700 2701 2702 2700 2703 2704 2700 2693 2705 
2700 2702 2693 2700 2704 2701 2700 2705 2703 
826 2691 2706 826 2678 2691 826 825 2678 
826 2706 2707 824 826 2707 2708 2702 2709 
2708 2694 2702 2708 2690 2694 2708 2706 2690 
2708 2710 2706 2708 2709 2710 61 2711 2712 
61 2712 2713 61 1004 2670 61 2713 1004 
2670 57 61 2670 58 57 60 2711 61 
57 59 60 2714 2715 2716 2714 2717 2718 
2714 2716 2717 2719 2720 2721 2719 2721 2699 
2719 2667 2722 2719 2715 2720 2719 2716 2715 
2719 2699 2667 2719 2722 2716 2723 2724 2655 
2723 2725 2724 2723 2726 787 2723 2652 2726 
2723 2655 2652 2723 787 784 2723 784 2725 
822 2727 2728 822 823 2727 822 2729 820 
822 2728 2729 822 820 819 2730 823 819 
2731 2732 2733 2731 2734 2732 2731 2733 2735 
2731 2736 2734 2731 2735 2727 2731 2727 2736 
2737 2730 2738 2737 823 2730 2737 2739 2736 
2737 2736 823 2737 2738 2739 2740 62 66 
66 2732 2741 65 2742 66 66 2742 2743 
66 2743 2732 2740 63 62 66 2741 2740 
62 64 65 2744 2745 2746 2744 993 996 
2744 1703 993 2744 2746 1703 2744 2747 2745 
2744 996 2747 2748 2733 2749 2748 2750 2751 
2748 2752 2750 2748 2753 2752 2748 2749 2753 
2748 2751 2733 2754 2755 2756 2754 2756 2757 
2754 2758 2759 2754 2759 2760 2754 2760 2755 
2754 2757 2758 2761 2762 2674 2761 2597 2762 
2761 2763 2764 2761 2764 2597 2761 2765 2763 
2761 2674 2765 2766 2767 2768 2766 2769 2770 
2766 2770 2767 2766 2771 2769 2766 2768 2771 
2772 1701 2773 2772 1663 2774 2772 2775 1663 
2772 2776 1701 2772 2773 2775 2772 2774 2776 
2777 2778 2779 2777 2780 2781 2777 1635 2778 
2777 1699 2780 2777 2779 1699 2777 2781 1635 
2782 2778 1634 2782 2783 1695 2782 1695 2784 
2782 1634 70 2782 70 2783 2782 2784 2778 
2785 2786 1697 2785 1691 2787 2785 1697 2779 
2785 2787 2786 2785 2784 1691 2785 2779 2784 
2788 2789 2790 2788 2791 2792 2788 2790 2793 
2788 2793 2791 2788 2792 2794 2788 2794 2789 
2795 2796 2797 2795 2798 2796 2795 2791 2799 
2795 2797 2800 2795 2800 2791 2795 2799 2798 
2801 2802 2803 2801 2804 2802 2801 2805 2806 
2801 2803 2805 2801 2807 2804 2801 2806 2807 
2808 2787 1690 2808 2809 2787 2808 2810 2797 
2808 1690 2810 2808 2811 2809 2808 2797 2811 
809 2809 2812 809 2812 812 809 811 2786 
1700 811 810 809 2786 2809 809 812 810 
2813 2814 2815 2783 67 2813 2813 2815 1693 
2813 69 2814 2813 1693 2783 67 69 2813 
67 71 68 2783 70 67 2816 2817 2818 
2816 2818 2819 2816 2820 1265 2816 2819 2820 
2816 1265 2821 2816 2821 2817 805 804 808 
805 1006 2822 805 2822 801 805 1005 1006 
804 801 2823 1005 808 807 800 794 2824 
800 2823 801 800 2824 2823 800 803 794 
800 799 803 799 801 2822 786 2825 2725 
786 2826 2827 784 786 2725 786 785 2826 
786 2827 2825 2828 2829 2830 2828 2831 2829 
2828 2832 2831 2828 2827 2832 2828 2833 2827 
2828 2830 2833 2834 782 2835 2834 2836 2837 
2834 2837 2838 2834 2838 782 2834 2839 2836 
2834 2835 2839 2840 2841 2842 2840 779 2843 
2840 2842 2835 2840 2835 779 2840 2830 2841 
2840 2843 2830 2844 2845 1683 2844 2846 1676 
2844 2847 2845 2844 2848 2846 2844 1676 2847 
2844 1683 2848 2849 2850 2851 2849 2852 2853 
2849 2853 2850 2849 2851 2854 2849 2854 2855 
2849 2855 2852 2856 2857 2858 2856 2858 2859 
2856 1677 2846 2856 2860 1677 2856 2846 2857 
2856 2859 2860 2861 2862 1687 2861 2863 2864 
2861 2865 2863 2861 2864 2862 2861 1687 2866 
2861 2866 2865 2867 2868 2865 2867 2832 2869 
2867 2870 2868 2867 2869 2870 2867 2865 2871 
2867 2871 2832 2872 2850 2873 2872 2873 2874 
2872 2874 2875 2872 2876 2850 2872 2875 2877 
2872 2877 2876 2878 2879 2880 2878 2880 2881 
2878 2875 2882 2878 1686 2879 2878 2882 1686 
2878 2881 2875 2883 2884 2885 2883 2886 2530 
2883 2564 2884 2883 2887 2886 2883 2530 2564 
2883 2885 2887 2888 2889 2890 2888 2891 1681 
2888 1681 2860 2888 2860 2889 2888 2890 2892 
2888 2892 2891 2893 2894 2895 2893 2855 2894 
2893 2896 2897 2893 2898 2896 2893 2895 2898 
2893 2897 2855 2899 2900 2901 2899 774 2902 
2899 2902 2900 2899 2903 774 2899 2904 2903 
2899 2901 2904 2905 2906 2907 2905 2891 2908 
2905 2907 1678 2905 2908 2909 2905 2909 2906 
2905 1678 2891 2910 2906 2911 2910 2912 2913 
2910 2914 2912 2910 2911 2915 2910 2915 2914 
2910 2913 2906 2916 2917 2918 2916 2919 2917 
2916 2920 2919 2916 773 2920 2916 2921 773 
2916 2918 2921 2922 1672 2923 2922 64 2924 
2922 2923 64 2922 2925 1672 2922 2924 2925 
2926 2927 1671 2926 1671 2928 2926 2929 2919 
2926 2915 2929 2926 2919 2927 2926 2928 2915 
2930 2931 2932 2930 2933 2934 2930 2934 2931 
2930 2935 2933 2930 2936 2935 2930 2932 2936 
2937 2938 2939 2937 2940 2931 2937 2523 2940 
2937 2931 2938 2937 2941 2523 2937 2939 2941 
2942 2548 2943 2942 2944 2945 2942 2943 2944 
2942 2946 2548 2942 2947 2946 2942 2945 2947 
2948 2547 2521 2948 2943 2547 2948 2521 2941 
2948 2949 2943 2948 2941 2950 2948 2950 2949 
2951 2952 1665 2951 2953 1646 2951 1646 2954 
2951 2954 2952 2951 1665 2955 2951 2955 2953 
2956 2957 2774 2956 2952 2958 2956 2958 2959 
2956 2774 1662 2956 2959 2957 2956 1662 2952 
2960 2961 2962 2960 2950 2939 2960 2963 2950 
2960 2964 2961 2960 2939 2964 2960 2962 2963 
2965 2966 2964 2965 2938 2934 2965 2967 2968 
2965 2964 2938 2965 2968 2966 2965 2934 2967 
2969 2970 2971 2969 2972 2970 2969 2973 2974 
2969 2974 2972 2969 2971 2975 2969 2975 2973 
2976 2977 2803 2976 2978 2977 2976 2971 2978 
2976 2803 2979 2976 2979 2980 2976 2980 2971 
2981 2982 2983 2981 2984 2945 2981 2983 2985 
2981 2945 2982 2981 2985 2986 2981 2986 2984 
2987 2985 2988 2987 2989 2974 2987 2988 2989 
2987 2990 2985 2987 2991 2990 2987 2974 2991 
2992 2944 2949 2992 2982 2944 2992 2949 2963 
2992 2993 2982 2992 2994 2993 2992 2963 2994 
2995 2552 2543 2995 2543 2576 2995 2582 2996 
2995 2576 2582 2995 2997 2552 2995 2996 2997 
2998 2999 3000 2998 3000 3001 2998 3001 2586 
2998 2586 3002 2998 3002 777 2998 777 2999 
3003 3004 1659 3003 3005 2480 3003 1659 3006 
3003 2480 3004 3003 2472 3005 3003 3006 2472 
3007 1651 2498 3007 3008 1651 3007 3009 3010 
3007 2498 3009 3007 3010 3011 3007 3011 3008 
3012 1656 3013 3012 3014 1650 3012 1650 3008 
3012 3015 1656 3012 3008 3015 3012 3013 3014 
3016 3017 2935 3016 3018 3019 3016 3020 3017 
3016 3019 3020 3016 2935 3021 3016 3021 3018 
3022 3023 3024 3022 3025 3026 3022 3024 3025 
3022 3026 3027 3022 3027 3028 3022 3028 3023 
3029 3030 3031 3029 3032 3030 3029 3031 3033 
3029 3033 3034 3029 3034 3032 3035 3036 3037 
3035 3038 3027 3035 3034 3039 3035 3027 3036 
3035 3039 3038 3035 3037 3034 3040 2405 3041 
3040 2415 2405 3040 3042 3043 3040 3041 3042 
3040 3044 2415 3040 3043 3044 3045 1642 2410 
3045 3046 2958 3045 2414 3046 3045 2954 1642 
3045 2410 2414 3045 2958 2954 3047 3048 3049 
3047 1636 2781 3047 3049 3043 3047 3050 1636 
3047 3043 3050 3047 2781 3048 3051 1637 3050 
3051 3052 1637 3051 3050 3042 3051 3042 3053 
3051 3053 3054 3051 3054 3052 3055 3056 3057 
3055 2397 3058 3055 3059 2397 3055 3057 3059 
3055 3058 3060 3055 3060 3056 3061 2391 2383 
3061 3062 3063 3061 3063 3064 3061 3065 2391 
3061 2383 3062 3061 3064 3065 3066 3067 3068 
3066 3062 2388 3066 3020 3069 3066 3068 3020 
3066 3069 3062 3066 2388 3067 743 714 713 
743 744 714 743 741 740 743 713 741 
3070 744 740 706 703 1623 704 706 3071 
706 1623 3072 706 3072 3073 706 3073 3071 
3074 3075 748 3074 748 739 3074 1620 3076 
3074 739 1620 3074 3076 3075 3077 1618 3078 
3077 3079 1618 3077 1624 732 3077 732 3080 
3077 3080 3079 3077 3078 1624 3081 538 3082 
3081 728 726 3081 3082 728 3081 3083 538 
3081 726 3083 3084 3085 3086 3084 3087 3085 
3084 3088 3087 3084 3086 3089 3084 3089 3090 
3084 3090 3088 3091 3092 3093 3091 3094 3087 
3091 3087 3092 3091 3095 3094 3091 3082 3095 
3091 3093 3082 3096 3097 3098 3096 3099 3100 
3096 3101 3102 3096 3100 3097 3096 3098 3101 
3096 3102 3099 3103 3104 3105 3103 3106 3104 
3103 3107 3106 3103 3108 3107 3103 3109 3108 
3103 3105 3109 3110 3111 3112 3110 3113 3114 
3110 3114 3115 3110 3112 3116 3110 3116 3113 
3110 3115 3111 3117 3118 3107 3117 3107 3119 
3117 3113 3120 3117 1612 3118 3117 3120 1612 
3117 3119 3113 3121 3122 1608 3121 3123 3124 
3121 3124 3109 3121 3125 3123 3121 3109 3122 
3121 1608 3125 3126 3125 1609 3126 1609 3127 
3126 3128 1597 3126 1597 3129 3126 3129 3125 
3126 3127 3128 3130 3131 3123 3130 3129 1601 
3130 3132 3131 3130 1601 3133 3130 3123 3129 
3130 3133 3132 3134 3135 3136 3134 2440 2425 
3134 3137 3135 3134 2425 3138 3134 3138 3137 
3134 3136 2440 3139 3138 2424 3139 2417 3140 
3139 3141 3138 3139 2424 2417 3139 3140 3142 
3139 3142 3141 3143 74 3144 3143 3144 3133 
3143 1600 3145 72 74 3143 3143 3133 1600 
72 76 73 3145 75 72 3145 72 3143 
3146 3111 3147 3146 3148 3149 3146 3149 3150 
3146 3151 3111 3146 3147 3148 3146 3150 3151 
3152 3153 3154 3152 3154 713 3152 3155 3156 
3152 711 3155 3152 3156 3153 696 695 3157 
696 3073 3158 696 3157 3159 694 696 3158 
696 3159 3073 3160 1625 3161 3160 3072 1625 
3160 3162 3163 3160 3163 3158 3160 3161 3162 
3160 3158 3072 689 691 3164 3165 691 690 
689 3149 717 689 692 690 689 717 692 
689 3164 3149 3166 3167 3168 3166 3169 81 
3166 3170 3169 3166 81 3167 3166 3168 3102 
3166 3102 3170 3171 687 323 3171 323 3172 
3171 3173 687 3171 3174 3173 3171 79 3174 
3171 3172 79 77 81 78 3175 77 3176 
3175 80 77 77 79 3176 3176 79 3172 
3176 3172 3177 3176 3177 3178 3176 3178 3175 
3179 3180 3181 3179 3182 3183 3179 3184 3180 
3179 3185 3184 3179 3183 3185 3179 3181 3182 
3186 3187 3188 3186 3156 3189 3186 3182 3190 
3186 3189 3187 3186 3188 3182 3186 3190 3156 
3191 3192 3185 3191 849 853 3191 3185 3193 
3191 853 3192 3191 3193 850 3191 850 849 
295 3194 3195 295 3196 3194 295 3195 1098 
295 1098 296 3196 295 297 3196 297 1156 
3197 3198 1593 3197 181 3199 3197 3199 3157 
3197 1593 179 3197 3157 3198 3200 3201 1594 
3200 698 3202 3200 695 698 3200 3202 3201 
3200 1594 3198 3200 3198 695 3203 685 1008 
3203 3145 1599 3203 3204 685 3203 1008 75 
3203 1599 3204 3203 75 3145 729 3093 3205 
727 729 3206 729 3207 3206 729 728 3093 
729 3205 3207 725 3208 3209 725 3209 726 
725 3210 3211 725 3211 3208 3210 727 3206 
3210 725 727 3212 3213 3210 3212 3214 3215 
3212 3216 3213 3212 3215 3217 3212 3217 3216 
3212 3210 3206 3212 3206 3214 3218 3219 3211 
3218 3211 3213 3218 3213 3220 3221 3205 3092 
3221 3222 3223 3221 3224 3222 3221 3092 3088 
3221 3223 3205 3221 3088 3224 3225 3226 3227 
3225 3228 3229 3225 3224 3090 3225 3227 3228 
3225 3090 3226 3225 3229 3224 3230 3231 3232 
3230 3232 3233 3230 3233 2361 3234 3235 1614 
3234 3236 3235 3234 1614 3237 3234 3238 1588 
3234 1588 3236 3234 3237 3238 3239 3240 3241 
3239 3242 3243 3239 3241 3097 3239 3097 3242 
3239 3244 3240 3239 3243 3244 3245 3246 3247 
3245 3232 3248 3245 3247 3232 3245 3248 3249 
3245 3243 3246 3245 3249 3243 669 671 3250 
671 658 3251 671 670 658 671 3252 3250 
671 3251 3252 3253 3254 3255 3253 3256 3257 
3253 3258 3254 3253 3255 2326 3253 3257 3258 
3253 2326 3256 3259 3260 1572 3259 3261 3260 
3259 1572 3262 3259 1582 3261 3259 3263 1582 
3259 3262 3263 3264 3265 3266 3264 3267 3268 
3264 3269 3265 3264 3266 3270 3264 3270 3267 
3264 3268 3269 3271 2453 2444 3271 2444 3272 
3271 3273 2453 3271 3272 3266 3271 3274 3273 
3271 3266 3274 3275 3276 1575 3275 3277 3276 
3275 1575 2454 3275 2454 3273 3275 3273 3277 
3278 3279 3280 3278 3280 3281 3278 3269 3279 
3278 3281 3282 3278 3282 649 3278 649 3269 
647 649 3282 648 3277 3274 648 3274 3265 
648 647 651 648 651 3277 648 3265 649 
3283 3284 3285 3283 3285 3286 3283 1584 3263 
3283 3287 1584 3283 3286 3287 3283 3263 3284 
3288 3289 1408 3288 1569 3290 3288 1408 3291 
3288 3292 1569 3288 3290 3289 3288 3291 3292 
3293 1565 3294 3293 3295 1565 3293 3296 1559 
3293 1559 3297 3293 3297 3295 3293 3294 3296 
3298 640 637 3298 3299 571 3298 571 574 
3298 574 640 3298 3300 3299 3298 637 3300 
641 3301 3302 641 3303 3301 641 645 3303 
638 641 3302 3304 3305 3306 3304 3030 3307 
3304 3306 3308 3304 3307 3309 3304 3309 3305 
3304 3308 3030 3310 3311 3312 3310 3313 3311 
3310 3314 3305 3310 3312 3314 3310 3315 3313 
3310 3305 3315 3316 3317 3286 3316 3318 656 
3316 1555 3317 3316 655 1555 3316 3286 3318 
3316 656 655 3319 3320 3321 3319 1556 655 
3319 3322 1556 3319 3321 3322 3319 652 3320 
3323 1554 3324 3323 3317 1554 3323 3325 1583 
3323 1583 3287 3323 3324 3325 3323 3287 3317 
3326 1011 3322 3326 643 1011 3326 644 643 
3326 3322 3327 3326 3328 644 3326 3327 3328 
3329 3330 1549 3329 1422 3331 3329 3332 1422 
3329 3331 3330 3329 1549 3333 3329 3333 3332 
3334 1411 3335 3334 3291 1411 3334 3333 1548 
3334 1548 3336 3334 3336 3291 3334 3335 3333 
3337 3338 1546 3337 3339 1560 3337 1560 3296 
3337 1546 3340 3337 3296 3338 3337 3340 3339 
3341 3330 3342 3341 3343 3344 3341 1550 3330 
3341 1430 3343 3341 3342 1430 3341 3344 1550 
3345 3292 3336 3345 1547 3338 3345 1570 3292 
3345 3294 1570 3345 3336 1547 3345 3338 3294 
3346 3339 3347 3346 3348 3349 3346 1561 3339 
3346 1542 3348 3346 3347 1542 3346 3349 1561 
3350 3351 1543 3350 3352 3353 3350 1543 3354 
3350 3354 3352 3350 3353 3351 3355 1551 3344 
3355 1544 3347 3355 3356 1544 3355 3344 3356 
3355 3340 1551 3355 3347 3340 3357 1429 3358 
3357 3343 1429 3357 3359 1539 3357 1539 3356 
3357 3358 3359 3357 3356 3343 3360 1540 3359 
3360 1757 3361 3360 3361 3354 3360 3359 3362 
3360 3354 1540 3360 3362 1757 3363 3364 3365 
3363 3366 3312 3363 3367 3366 3363 3365 3367 
3363 3312 3368 3363 3368 3364 3369 3370 3371 
3369 3365 3370 3369 3372 3365 3369 3373 3372 
3369 3371 3374 3369 3374 3373 3375 3376 3377 
3375 3377 3378 3375 3378 3379 3375 3380 3376 
3375 3381 3380 3375 3379 3381 3382 3383 3384 
3382 3385 3386 3382 3384 3385 3382 3386 3376 
3382 3376 3383 3387 3377 3386 3387 3388 3377 
3387 3389 3390 3387 3386 3389 3387 3391 3388 
3387 3390 3391 3392 3388 3393 3392 3394 3378 
3392 3393 3395 3392 3378 3388 3392 3395 3396 
3392 3396 3394 3397 3398 3399 3397 3394 3400 
3397 3400 3398 3397 3379 3394 3397 3399 3379 
3401 3280 3402 3401 3403 3404 3401 2279 3403 
3401 3402 2279 3401 3404 3405 3401 3405 3280 
861 860 19 861 19 18 859 861 3406 
861 636 3406 861 18 636 3407 635 3408 
3407 3327 3321 3407 3409 636 3407 3408 3327 
3407 3321 3409 3410 3411 3412 3410 3412 3413 
3410 3413 3414 3410 86 3411 3414 83 82 
82 86 3410 82 84 85 3414 82 3410 
3415 3416 3417 3415 2639 2643 3415 1530 3416 
3415 3417 3418 3415 3418 2639 3415 2643 1530 
3419 83 3414 3419 3420 3421 3419 3422 83 
3419 3414 3420 3419 3423 3422 3419 3421 3423 
3424 3425 3426 3424 1532 3427 3424 3428 1532 
3424 3426 3429 3424 3429 3428 3424 3427 3425 
3430 3385 217 3430 3389 3385 3430 220 3431 
3430 3431 3432 3430 3432 3389 3430 217 220 
3433 3434 3435 3433 3412 3434 3433 3436 3437 
3433 3438 3436 3433 3437 3412 3433 3435 3438 
3439 1522 3440 3439 3441 1522 3439 3442 3443 
3439 3443 3444 3439 3444 3441 3439 3440 3442 
3445 3402 3279 3445 2276 3402 3445 3268 3446 
3445 3446 2291 3445 2291 2276 3445 3279 3268 
3447 3448 3449 3447 3449 3450 3447 3437 3448 
3447 3413 3437 3447 3420 3413 3447 3450 3420 
3451 3452 3453 3451 3454 2628 3451 3453 3455 
3451 3456 3452 3451 2628 3456 3451 3455 3454 
3457 3458 2535 3457 3459 3458 3457 3460 3461 
3457 3461 3462 3457 3462 3459 3457 2535 3460 
3463 1515 3464 3463 3465 1515 3463 3444 3466 
3463 3464 3444 3463 3466 3465 3467 3468 3469 
3467 3441 3464 3467 1514 3468 3467 3469 1525 
3467 3464 1514 3467 1525 3441 3470 3471 1504 
3470 1504 3472 3470 3473 1510 3470 1510 3474 
3470 3474 3471 3470 3472 3473 3475 3476 3477 
3475 3477 3478 3475 3479 3476 3475 3478 3480 
3475 3480 3479 3481 3479 3482 3481 3482 3483 
3481 3484 3485 3481 3485 3486 3481 3486 3479 
3481 3483 3484 3487 3473 3488 3487 3489 1508 
3487 3488 1496 3487 1496 3490 3487 1508 3473 
3487 3490 3489 3491 1501 2251 3491 2256 1497 
3491 3472 1501 3491 1497 3488 3491 2251 2256 
3491 3488 3472 3492 3493 3494 3492 3494 3495 
3492 13 3493 3492 3496 13 3492 3497 3496 
3492 3495 3497 3498 1492 1491 3498 3493 1492 
3498 2248 1499 3498 1499 3499 3498 1491 2248 
3498 3499 3493 3500 3501 3502 3500 3503 3504 
3500 3504 633 3500 634 3501 3500 3502 3503 
3500 633 634 1014 1017 1481 1014 1481 3505 
1014 3506 1015 1014 3505 3506 1013 1015 1487 
1014 1013 1017 625 624 2226 625 1484 3507 
625 2232 1484 625 2226 2232 621 625 3508 
625 3507 3508 3509 3508 3507 3509 1017 1016 
3509 1482 1017 3509 3507 1482 3509 3510 3508 
3509 1016 3510 3511 3501 3512 3511 3513 3514 
3511 3514 3501 3511 3515 3513 3511 3512 3516 
3511 3516 3515 3517 3518 3515 3517 3519 3518 
3517 3520 3519 3517 3521 3520 3517 3515 3521 
3522 3523 202 3522 3524 3525 3522 619 88 
3522 88 3523 3522 202 3524 3522 3525 619 
3526 208 3527 206 3526 3528 3526 206 208 
618 619 3525 206 3528 619 206 618 207 
3529 204 3523 3529 2219 204 3529 3530 2219 
3529 91 3530 3523 88 87 87 91 3529 
3523 87 3529 87 89 90 3531 1253 2057 
3531 3532 1468 3531 3533 1253 3531 1468 3534 
3531 2057 3532 3531 3534 3533 3535 3536 1472 
3535 3537 1469 3535 1469 3538 3535 1472 3539 
3535 3538 3536 3535 3539 3537 974 973 1465 
974 1465 3532 974 3532 2056 3540 1470 3541 
3540 3542 3543 3540 3544 3542 3540 3541 3544 
3540 3538 1470 3540 3543 3538 3545 973 3546 
3545 3547 3541 3545 1466 973 3545 3546 3547 
3545 3541 1466 92 96 93 92 94 3548 
3549 92 3548 3548 3550 3549 3548 101 3550 
3548 98 101 3548 94 98 3549 95 92 
3551 99 98 3551 98 94 3551 3480 99 
3551 94 3552 3551 3482 3480 3551 3552 3482 
3553 3554 3555 3553 99 3478 3555 97 3553 
97 101 98 97 99 3553 3553 3478 3556 
3553 3556 3554 3555 100 97 3557 3558 3559 
3557 3560 3561 3557 3559 3562 3557 3561 3558 
3557 3563 3560 3557 3562 3563 3564 3565 3566 
3564 1458 3567 3564 3568 1458 3564 3566 3569 
3564 3567 3565 3564 3569 3568 3570 3571 3572 
3570 1461 3573 3570 3573 3574 3570 3575 3571 
3570 3572 1461 3570 3574 3575 3576 3577 1373 
3576 1373 3578 3576 3573 1463 3576 3578 3573 
3576 1463 3579 3576 3579 3577 3580 3552 93 
3580 93 3581 3580 3483 3552 3580 3581 3582 
3580 3583 3483 3580 3582 3583 3584 1455 3585 
3584 14 3496 3584 3586 14 3584 3585 3586 
3584 617 1455 3584 3496 617 3587 3588 3589 
3587 3558 3590 3587 3590 3591 3587 3592 3588 
3587 3589 3558 3587 3591 3592 3593 1462 3572 
3593 3567 1462 3593 3572 3594 3593 3594 3595 
3593 3595 3596 3593 3596 3567 3597 3598 3599 
3597 3600 3601 3597 3599 3602 3597 3601 3598 
3597 3602 3603 3597 3603 3600 3604 3605 3606 
3604 3607 3605 3604 3608 3609 3604 3610 3608 
3604 3606 3610 3604 3609 3607 3611 2193 3612 
3611 3609 3613 3611 3614 2193 3611 3613 3614 
3611 3612 3615 3611 3615 3609 3616 3617 3618 
3616 3618 3619 3616 3620 3621 3616 3621 3617 
3616 3606 3620 3616 3619 3606 3622 3617 3623 
3622 3624 2244 3622 2244 3625 3622 3626 3617 
3622 3623 3624 3622 3625 3626 3627 211 213 
211 3628 212 3627 213 3629 211 3627 3630 
211 3631 3628 211 3630 3631 3632 1974 3633 
3632 1946 1974 3632 138 3634 3632 3634 1946 
3632 3633 3635 3632 3635 138 3636 3637 3638 
3636 3638 3639 3636 3640 3641 3636 3641 3637 
3636 3635 3640 3636 3639 3635 3642 3643 2170 
3642 3644 3645 3642 3637 3643 3642 3645 3646 
3642 2170 3644 3642 3646 3637 3647 3648 1969 
3647 3649 3648 3647 3650 3651 3647 1969 1930 
3647 1930 3650 3647 3651 3649 3652 3653 3654 
3652 3649 3655 3652 3655 3656 3652 3657 3653 
3652 3656 3657 3652 3654 3649 3658 2160 3659 
3658 3660 3661 3658 3662 2160 3658 3661 3662 
3658 3659 3657 3658 3657 3660 3663 3664 3665 
3663 3666 1442 3663 3667 3666 3663 3665 3667 
3663 1442 3668 3663 3668 3664 3669 3670 1048 
3669 1048 605 3669 3671 3670 3669 608 610 
3669 605 608 3669 610 3671 606 3672 3673 
604 606 603 606 3673 603 606 1046 3672 
609 3674 610 3674 3675 3676 3674 609 3675 
3674 3676 3677 3674 3677 610 3678 3679 3680 
3678 3680 3681 3678 3681 3682 3678 3682 3661 
3678 3683 3679 3678 3661 3683 3684 3685 3686 
3684 3687 3685 3684 3686 3688 3684 3688 3689 
3684 3689 3690 3684 3690 3687 3691 2620 3692 
3691 3693 3689 3691 3694 2620 3691 3689 3695 
3691 3692 3693 3691 3695 3694 3696 2125 2115 
3696 3381 3399 3696 3697 2125 3696 2115 3380 
3696 3399 3697 3696 3380 3381 3698 1434 3699 
3698 3700 1434 3698 3701 3425 3698 3699 3702 
3698 3702 3701 3698 3425 3700 3703 3704 3705 
3703 3700 3427 3703 3705 1437 3703 1531 3704 
3703 3427 1531 3703 1437 3700 3706 3707 3708 
3706 3651 3709 3706 3709 597 3706 3708 3655 
3706 3655 3651 3706 597 3707 3710 3660 3656 
3710 3708 3711 3710 3711 3712 3710 3712 3683 
3710 3683 3660 3710 3656 3708 3713 1428 3714 
3713 1758 3362 3713 3358 1428 3713 3362 3358 
3713 48 1758 3713 3714 48 3715 49 3714 
3715 3716 3717 3715 2322 49 3715 1427 3716 
3715 3714 1427 3715 3717 2322 3718 3719 3720 
3718 3721 3719 3718 3720 3722 3718 3723 3724 
3718 3724 3721 3718 3722 3723 3725 2103 3726 
3725 1423 2108 3725 3727 1423 3725 3726 3728 
3725 2108 2103 3725 3728 3727 3729 1431 3342 
3729 1421 3730 3729 3331 1421 3729 3342 3331 
3729 3731 1431 3729 3730 3731 3732 3733 1416 
3732 3734 3730 3732 3727 3733 3732 1416 3734 
3732 3730 1424 3732 1424 3727 3735 3716 1426 
3735 3734 1415 3735 1415 105 3735 1426 3731 
3735 105 3716 3735 3731 3734 3736 104 3737 
3736 2323 2322 3736 3737 2323 102 106 103 
102 104 3736 3717 105 102 3717 102 3736 
3736 2322 3717 3738 1410 2113 3738 2113 2107 
3738 3332 3335 3738 3335 1410 3738 2107 1419 
3738 1419 3332 3739 3723 3740 3739 3741 3742 
3739 3743 3741 3739 3740 3743 3739 3742 3744 
3739 3744 3723 3745 1402 3746 3745 3746 1951 
3745 3747 1402 3745 3748 3749 3745 3749 3747 
3745 1951 3748 3750 3751 3752 3750 3753 3754 
3750 3754 3755 3750 3756 3753 3750 3755 3751 
3750 3752 3756 3757 3758 3759 3757 3760 3761 
3757 3756 3760 3757 3761 2095 3757 2095 3758 
3757 3759 3756 3762 1397 3763 3762 3764 1147 
3762 3765 1397 3762 1147 3766 3762 3766 3765 
3762 3763 3764 3767 576 3768 3767 587 585 
3767 3768 3769 3767 585 576 3767 3770 587 
3767 3769 3770 588 3771 3772 586 588 3773 
588 3772 3773 588 587 3774 588 3774 3771 
3775 3776 3777 3775 3777 3778 3775 3779 3780 
3775 3780 3776 3775 3778 3779 3781 3782 3779 
3781 3783 3782 3781 3779 3784 583 586 3773 
583 3773 581 583 581 580 3785 584 580 
3786 3787 3788 3786 3789 3780 3786 3780 581 
3786 3788 3789 3786 581 3787 3790 3791 3792 
3790 3783 3793 3790 3794 3791 3790 3785 3783 
3790 3792 3785 3790 3793 3794 577 576 584 
575 577 3795 577 3792 3795 577 584 3792 
3796 3797 578 3796 3795 3798 3796 3798 3799 
3796 3799 3797 3796 575 3795 3800 3801 3802 
3800 3803 3801 3800 3804 3805 3800 3802 3755 
3800 3755 3804 3800 3805 3803 572 571 3806 
572 3806 3807 570 572 3808 572 3807 3803 
572 3803 3808 3809 3810 3811 3809 3010 3812 
3809 3813 3010 3809 3811 3814 3809 3814 3813 
3809 3812 3810 3815 3816 3817 3815 3818 3819 
3815 2494 3816 3815 3814 3818 3815 3817 3814 
3815 3819 2494 3820 3821 3822 3820 1229 3823 
3820 3824 1229 3820 3825 3821 3820 3823 3825 
3820 3822 3824 3826 1235 3827 3826 3828 1235 
3826 3822 3829 3826 3827 3822 3826 3830 3828 
3826 3829 3830 3831 3832 3833 3831 3834 3835 
3831 563 3832 3831 3833 2088 3831 2088 3834 
3831 3835 563 107 111 3836 3837 107 3836 
3837 108 107 3836 111 3838 3836 3838 3839 
3836 3839 3840 3836 3840 3837 107 109 110 
3841 3842 223 3841 3843 3842 3841 223 3844 
3841 3844 561 3841 561 3843 189 3845 3846 
189 549 190 189 668 549 189 3251 668 
189 3252 3251 189 3846 3252 3845 191 3847 
3845 189 191 3848 1380 232 3848 229 3849 
3848 8 1380 3848 3850 8 3848 3849 3850 
3851 3852 3853 3851 3854 547 3851 3853 3854 
3851 547 3855 3851 3855 675 3851 675 3852 
3856 154 153 3856 3853 3857 3856 3857 552 
3856 552 154 3856 153 3858 3856 3858 3859 
3856 3859 3853 3860 3861 3862 3860 3862 3850 
3860 3863 545 3860 3864 3863 3860 3850 3864 
3860 545 3861 3865 1372 3866 3865 3578 1372 
3865 3867 3868 3865 3868 3574 3865 3574 3578 
3865 3866 3867 3869 3870 3871 3869 3872 3873 
3869 3873 3874 3869 3875 3872 3869 3874 3870 
3869 3871 3875 3876 3877 3600 3876 3600 3878 
3876 3879 3877 3876 3880 3879 3876 3878 3872 
3876 3872 3880 3881 1134 3882 3881 3883 1134 
3881 1362 3884 3881 3885 1362 3881 3882 3885 
3881 3884 3883 3886 3887 3888 3886 3889 3890 
3886 3888 1506 3886 3890 1360 3886 1360 3887 
3886 1506 3889 3891 116 3892 3893 113 112 
112 116 3891 3891 3892 3894 3891 3894 3895 
3891 3895 3893 112 114 115 3893 112 3891 
1019 3896 3897 1019 3898 3896 1018 1020 3899 
1019 1018 1022 1019 1022 3898 1019 3897 1020 
3900 3901 1350 3900 3902 3901 3900 1350 3903 
3900 3904 1374 3900 1374 3902 3900 3903 3904 
3905 3906 3907 3905 3901 3908 3905 1351 3901 
3905 3909 1351 3905 3907 3909 3905 3908 3906 
541 1353 3910 541 540 1353 541 3911 3912 
541 3910 3911 539 541 3912 3913 3914 3915 
3913 542 3916 3913 3916 3914 3913 3915 1348 
3913 1348 540 3913 540 542 3917 3904 3918 
3917 3919 3920 3917 1375 3904 3917 3866 1375 
3917 3918 3919 3917 3920 3866 3921 1349 3915 
3921 3922 3923 3921 3903 1349 3921 3923 3918 
3921 3915 3922 3921 3918 3903 3924 119 3925 
3924 3925 3926 3924 3927 3928 3924 3926 3927 
3928 118 117 117 119 3924 3928 117 3924 
117 114 113 3929 3930 3931 3929 118 3928 
3929 1020 118 3929 3931 3899 3929 3899 1020 
3929 3928 3930 3932 3933 3934 3932 3935 3936 
3932 3934 3935 3932 3937 3933 3932 3938 3937 
3932 3936 3938 3939 3940 3937 3939 3941 3942 
3939 3942 3943 3939 3943 3940 3939 3937 3944 
3939 3944 3941 3945 1330 3946 3945 3947 1330 
3945 3948 3949 3945 3950 3948 3945 3946 3950 
3945 3949 3947 3951 3952 1605 3951 3953 3954 
3951 3947 3952 3951 1605 3953 3951 3954 1331 
3951 1331 3947 3955 1336 3956 3955 3957 1336 
3955 3946 1328 3955 1328 3958 3955 3958 3957 
3955 3956 3946 3959 3960 3961 3959 3962 3963 
3959 3086 3964 3959 3961 3086 3959 3964 3962 
3959 3963 3960 3965 3085 3094 3965 3964 3085 
3965 3966 3967 3965 3094 3968 3965 3968 3966 
3965 3967 3964 3969 3970 3971 3969 3971 3972 
3969 1324 3973 3969 3974 1324 3969 3972 3974 
3969 3973 3970 530 3975 526 530 527 3976 
3975 530 532 3975 532 3977 530 3976 531 
3978 3979 3980 3978 3980 3981 3978 3981 523 
3978 523 3975 3978 3975 3977 3978 3977 3979 
3982 378 3983 376 533 377 532 376 3977 
3982 376 378 376 3982 3977 3984 3985 370 
3984 3986 3985 3984 3987 3986 3984 369 3988 
3984 370 369 3984 3988 3987 3989 3990 1025 
3989 3991 3992 3989 419 3993 3989 1025 3991 
3989 3993 3990 3989 3992 419 3994 3995 519 
3994 518 3996 3994 3997 3995 3994 3998 3997 
3994 3996 3998 1024 3988 3999 1024 3999 4000 
1024 1023 1027 1023 1025 3990 1024 1027 3988 
1024 4000 1025 4001 524 3981 4001 4002 524 
4001 517 519 4001 519 4002 4001 3981 4003 
4001 4003 517 4004 365 364 4004 4005 4006 
4004 4006 366 4004 366 4007 4004 4007 365 
4004 364 4005 4008 4009 4010 4008 4010 4011 
4008 361 4012 4008 4012 4009 4008 4011 364 
4013 4014 4015 4013 4009 4014 4013 4016 4017 
4013 4018 4016 4013 4017 4009 4013 4015 4018 
4019 4020 4021 4019 4021 4022 4019 4023 4020 
4019 4022 4024 4019 4025 4023 4019 4024 4025 
4026 511 4027 4026 4028 4029 4026 4029 511 
4026 4030 4031 4026 4031 4028 4026 4027 4030 
4032 4033 515 4032 4034 4033 4032 4025 4035 
4032 4036 4025 4032 515 4036 4032 4035 4034 
4037 4038 4039 4037 4039 4040 4037 514 4041 
4037 4041 4038 4037 4042 514 4037 4040 4042 
4043 4044 4045 4043 4046 4047 4043 4042 4046 
4043 4045 4042 4043 4048 4044 4043 4047 4048 
4049 4050 4051 4049 4052 4041 4049 4033 4050 
4049 513 4033 4049 4041 513 4049 4051 4052 
4053 4054 4047 4053 4027 4054 4053 4055 4027 
4053 4056 4055 4053 4047 4057 4053 4057 4056 
4058 4059 628 4058 4060 4061 4058 628 4062 
4058 4061 4059 4058 4062 4060 4063 4064 4065 
4063 4061 4066 4063 4065 4061 4063 4066 4067 
4063 4067 4068 4063 4068 4064 4069 4070 4064 
4069 4071 4070 4069 4072 4073 4069 4064 4072 
4069 4073 4074 4069 4074 4071 4075 1299 4076 
4075 4077 4078 4075 4079 4077 4075 4078 4080 
4075 4080 1299 4075 4076 4079 4081 4082 4083 
4081 4083 4084 4081 4084 4085 4081 4085 4086 
4081 4087 4082 4081 4086 4087 4088 1511 4089 
4088 3889 1511 4088 4089 4090 4091 4092 4093 
4091 4094 4095 4091 4096 4094 4091 4097 4092 
4091 4095 4097 4091 4093 4096 4098 4097 4099 
4098 4100 4101 4098 4102 4100 4098 4103 4102 
4098 4099 4103 4098 4101 4097 4104 4074 4105 
4104 4105 4106 4104 4107 4108 4104 4106 4100 
4104 4100 4107 4104 4108 4074 504 4109 4110 
504 4111 4109 504 503 4111 504 4110 4112 
502 504 4112 1063 1065 4113 1065 4110 4113 
1065 4114 4115 1065 1064 4114 1065 4115 4110 
4116 4117 4118 4116 4119 4120 4116 4118 4082 
4116 4120 4117 4116 4087 4119 4116 4082 4087 
501 1272 4121 501 500 3998 497 501 4121 
501 1 1272 501 3998 1 4122 3075 4123 
4122 749 3075 4122 4124 749 4122 4125 4124 
4122 4126 4125 4122 4123 4126 487 489 1321 
489 488 2820 488 491 1266 488 1266 2820 
790 489 2820 488 487 491 4127 496 1319 
4127 4128 4129 4127 1320 4128 4127 1319 1320 
4127 4124 496 4127 4129 4124 4130 4131 4132 
4130 4133 486 4130 3894 4134 4130 486 3894 
4130 4132 4133 4130 4134 4131 4135 3870 4136 
4135 4136 4137 4135 4138 4139 4135 4139 4140 
4135 4137 4138 4135 4140 3870 4141 4142 4138 
4141 4143 4142 4141 4138 4144 4141 3926 4143 
4141 4145 3926 4141 4144 4145 4146 476 473 
4146 768 476 4146 4147 4148 4146 4148 2921 
4146 473 4147 4146 2921 768 4149 4150 1315 
4149 1093 4151 4149 4152 1093 4149 4151 4150 
4149 1315 4153 4149 4153 4152 477 4154 4155 
477 767 4154 477 4155 4156 474 477 4156 
477 476 767 4157 4158 4159 4157 4159 4160 
4157 4161 4162 4157 4162 4163 4157 4160 4161 
4157 4163 4158 4164 461 1317 4164 4165 461 
4164 4166 4167 4164 1317 4168 4164 4168 4166 
4164 4167 4165 4169 4170 2896 4169 4171 4172 
4169 4172 4173 4169 4173 4170 4169 2896 4171 
4174 4175 4176 4174 4177 4175 4174 4159 4178 
4174 4176 4179 4174 4179 4159 4174 4178 4177 
4180 4181 4172 4180 4182 4183 4180 4172 4182 
4180 4184 4185 4180 4185 4181 4180 4183 4184 
4186 4187 4155 4186 4185 4188 4186 4189 4190 
4186 4188 4187 4186 4190 4185 4186 4155 4189 
4191 4192 4193 4191 4194 4195 4191 1282 4192 
4191 4196 4194 4191 4193 4196 4191 4195 1282 
4197 1036 4198 4197 4198 4199 4197 4199 4200 
4197 4200 4201 4197 1037 1036 4197 4201 1037 
4202 4203 4204 4202 4205 4203 4202 4204 4206 
4202 4016 4207 4202 4206 4016 4202 4207 4205 
4208 4209 4210 4208 4211 4209 4208 4206 4211 
4208 4017 4206 4208 4010 4017 4208 4212 4010 
4208 4210 4212 4213 4214 4215 4213 4216 4217 
4213 4217 4214 4213 4215 4218 4213 4218 470 
4213 470 4216 469 472 4006 469 4219 4220 
469 468 472 469 4006 4219 468 470 4218 
469 4220 470 4221 4222 4219 4221 4005 4011 
4221 4212 4223 4221 4219 4005 4221 4011 4212 
4221 4223 4222 4224 131 4225 4224 4226 131 
4224 4225 4227 4224 4228 4229 4224 4227 4228 
4224 4229 4226 4230 4231 4232 4230 4233 4234 
4230 4225 4231 4230 4234 4225 4230 4232 4214 
4230 4214 4233 451 4235 449 451 452 4236 
451 4236 4237 451 4237 4235 451 449 448 
4238 452 448 4239 4240 4241 4239 4241 4242 
4239 4243 4240 4239 4242 4205 4239 4244 4243 
4239 4205 4244 4245 4246 4240 4245 4247 4248 
4245 4248 4249 4245 4250 4247 4245 4240 4250 
4245 4249 4246 4251 4252 1313 4251 1313 4253 
4251 4254 4255 4251 4256 4254 4251 4253 4256 
4251 4255 4252 4257 463 4258 4257 1312 4259 
4257 4259 464 4257 4258 4253 4257 4253 1312 
1032 1314 4260 1032 4261 1314 1032 4260 4262 
1028 1032 4262 1032 1031 4261 4263 4264 4265 
4263 4265 4260 4263 4266 4267 4263 1310 4266 
4263 4260 1310 4263 4267 4264 4268 4242 4269 
4268 4203 4242 4268 4270 4203 4268 4269 4271 
4268 4271 4272 4268 4272 4270 4273 1311 4261 
4273 4274 4275 4273 4276 4274 4273 4259 1311 
4273 4275 4259 4273 4261 4276 4277 4163 4278 
4277 4279 4163 4277 4278 4228 4277 4228 4280 
4277 4280 4281 4277 4281 4279 4282 4283 4255 
4282 4284 4285 4282 1307 4283 4282 4286 1307 
4282 4255 4284 4282 4285 4286 4287 4266 1309 
4287 1306 4288 4287 1309 4252 4287 4283 1306 
4287 4288 4266 4287 4252 4283 4289 1304 4286 
4289 4290 1304 4289 4291 4292 4289 4292 4293 
4289 4293 4290 4289 4286 4291 4294 4295 4296 
4294 1305 4297 4294 4297 4295 4294 4288 1305 
4294 4267 4288 4294 4296 4267 455 454 450 
455 449 4298 453 455 4299 455 4298 4299 
455 450 449 4300 4301 4302 4300 4302 4303 
4300 4235 4301 4300 4304 4298 4300 4303 4304 
4300 4298 4235 4305 4306 4249 4305 454 457 
4305 457 4307 4305 4308 454 4305 4307 4306 
4305 4249 4308 4309 4306 4310 4309 4310 4311 
4309 4269 4241 4309 4241 4246 4309 4311 4269 
4309 4246 4306 4312 4313 4314 4312 428 4315 
4312 4316 428 4312 4314 4317 4312 4315 4313 
4312 4317 4316 444 4318 445 444 4319 4318 
429 446 426 444 429 4316 444 4316 4319 
429 444 446 1039 1038 1042 1039 4320 1040 
1039 1042 4315 1039 4315 4321 1038 1040 4322 
1039 4321 4320 4323 4324 4325 4323 4326 4327 
4323 4328 4293 4323 4325 4326 4323 4293 4324 
4323 4327 4328 4329 122 4290 4329 4328 434 
4329 4290 4328 4329 434 4330 120 122 4329 
120 124 121 4330 123 120 4330 120 4329 
4331 4332 4333 4331 4333 442 4331 441 440 
4331 440 4334 4331 4334 4332 4335 4336 4337 
4335 4295 443 4335 443 442 4335 442 4336 
4335 4337 4338 4335 4338 4295 1044 430 4322 
1044 439 430 1044 1040 1043 1044 4322 1040 
1073 1072 4339 4339 1066 1073 4339 1067 1066 
4340 4341 4342 4342 4343 4344 4342 4341 4343 
4340 1072 4341 4342 4345 4346 4342 4344 4345 
4342 4346 4347 4342 4347 4340 4348 4349 4350 
4348 4351 4349 4348 4350 4352 4348 4344 4351 
4348 4345 4344 4348 4352 4345 4353 1070 1069 
4353 1295 4354 4353 4076 1302 4353 1069 1295 
4353 4354 4076 4353 4355 1070 4353 1302 4355 
1068 1067 1069 4356 4357 4358 4356 4359 4360 
4356 4361 4357 4356 4360 4361 4356 4358 4359 
4362 4363 4364 4362 4365 4366 4362 4366 4367 
4362 4367 4363 4362 4364 4359 4362 4359 4365 
4368 4369 1285 4368 4370 4371 4368 4371 4369 
4368 4372 4373 4368 1285 4372 4368 4373 4370 
4374 4375 4376 4374 4377 4378 4374 4379 4377 
4374 4378 245 4374 245 4375 4374 4376 4379 
4380 148 4381 4380 4367 148 4380 4382 4383 
4380 4381 128 4380 128 4382 4380 4383 4367 
4384 129 4318 125 129 4384 4385 126 125 
4385 125 4384 4384 4386 4385 4384 4318 4319 
4384 4319 4386 125 127 128 4387 4388 4389 
4387 4389 4390 4387 4391 4388 4387 4392 4391 
4387 4357 4392 4387 4390 4357 4393 1258 1257 
4393 4388 4394 4393 1257 4395 4393 4394 1258 
4393 4395 4396 4393 4396 4397 4393 4397 4388 
4398 248 4399 4398 4375 248 4398 4400 4375 
4398 4401 4402 4398 4402 4400 4398 4399 4401 
4403 4404 4405 4403 4352 4406 4403 4405 4407 
4403 4406 4404 4403 4407 4408 4403 4408 4352 
4409 4237 4410 4409 4405 4411 4409 4411 4301 
4409 4410 4412 4409 4301 4237 4409 4412 4405 
4413 4414 126 4413 4415 4302 4413 4302 4411 
4413 126 4415 4413 4411 4404 4413 4404 4414 
4416 4417 4161 4416 4418 4419 4416 4419 4417 
4416 4161 4420 4416 4421 4418 4416 4420 4421 
4422 4423 4424 4422 4425 4423 4422 4426 4427 
4422 4427 4425 4422 4424 4426 4428 4429 2804 
4428 2895 4429 4428 4430 1280 4428 1280 4431 
4428 2804 4430 4428 4431 2895 4432 4433 4434 
4432 1275 4435 4432 4436 1275 4432 4427 4433 
4432 4435 4427 4432 4434 4436 422 4437 1269 
422 421 4438 422 4438 4437 420 422 4439 
422 1269 4439 4231 131 130 4231 130 4440 
130 134 4440 130 132 133 4440 4441 4232 
4440 134 418 4440 418 4441 4440 4232 4231 
4442 4443 1262 4442 4436 4443 4442 1262 4444 
4442 1276 4436 4442 4444 4445 4442 4445 1276 
4446 4434 4447 4446 4448 1263 4446 1263 4443 
4446 4447 4448 4446 4443 4434 4449 2821 1267 
4449 4450 4451 4449 4451 2821 4449 1267 4448 
4449 4448 4452 4449 4452 4450 4453 4454 3670 
4453 1847 4454 4453 3670 4455 4453 4456 958 
4453 958 1847 4453 4455 4456 4457 4458 601 
4457 4459 4458 4457 601 416 4457 4460 4459 
4457 412 4460 4461 416 600 4461 4462 415 
4461 415 416 4461 3673 4463 4461 600 3673 
4461 4463 4462 4464 628 627 4464 4465 4466 
4464 3504 4465 4464 627 3504 4464 4467 628 
4464 4466 4467 554 1247 4468 554 556 1247 
554 1389 409 553 409 1390 554 4468 1389 
554 553 556 4469 4470 4471 4469 4472 4473 
4469 4473 4474 4469 4475 4472 4469 4474 4470 
4469 4471 4475 4476 4477 1250 4476 4478 1244 
4476 1244 4479 4476 1250 4480 4476 4479 4477 
4476 4480 4478 4481 1586 4482 4481 4482 4483 
4481 4484 4485 4481 4485 1586 4481 4483 1241 
4481 1241 4484 4486 4487 4488 4486 4489 4490 
4486 4488 4491 4486 4490 4487 4486 4491 4470 
4486 4470 4489 222 221 224 221 223 3842 
222 4492 557 222 557 223 222 224 4487 
222 4487 4492 4493 1233 4494 4493 4494 1227 
4493 3827 1233 4493 1227 3824 4493 3824 3827 
4495 4496 4497 4495 4498 2034 4495 4497 4498 
4495 2034 4499 4495 4499 4500 4495 4500 4496 
4501 4502 4503 4501 4497 4504 4501 4505 4497 
4501 4504 4506 4501 4503 4505 4501 4506 4502 
4507 4508 4509 4507 4509 4510 4507 4511 4508 
4507 4510 4512 4507 4512 4513 4507 4513 4511 
4514 4515 1222 4514 4508 4515 4514 4516 4517 
4514 4518 4508 4514 4517 4518 4514 1222 4516 
4519 4520 4521 4519 4072 4068 4519 4522 4072 
4519 4523 4522 4519 4521 4523 4519 4068 4520 
4524 4510 4525 4524 4525 4526 4524 4527 4528 
4524 4528 4529 4524 4529 4510 4524 4526 4527 
4530 2015 4531 4530 4531 4513 4530 4513 4532 
4530 4533 2015 4530 4532 4534 4530 4534 4533 
4535 4536 4537 4535 4538 4539 4535 4537 4540 
4535 4540 4538 4535 4539 4541 4535 4541 4536 
4542 4543 4537 4542 4544 4545 4542 4546 4544 
4542 4537 4546 4542 4547 4543 4542 4545 4547 
4548 4549 4550 4548 4551 4552 4548 4541 4549 
4548 4550 4551 4548 4552 4541 4553 4554 4084 
4553 4555 4556 4553 4557 4554 4553 4084 4555 
4553 4556 4558 4553 4558 4557 4559 4560 4561 
4559 4547 4562 4559 4561 4563 4559 4564 4560 
4559 4562 4564 4559 4563 4547 4565 4566 4567 
4565 4568 4569 4565 4567 1211 4565 4569 4566 
4565 1211 4570 4565 4570 4568 4571 4572 4117 
4571 4573 4572 4571 4574 4573 4571 4575 4574 
4571 4576 4575 4571 4117 4576 4577 4578 4579 
4577 4544 4580 4577 4574 4578 4577 4581 4544 
4577 4579 4581 4577 4580 4574 4582 4583 4584 
4582 4584 4585 4582 4585 4586 4582 4586 1064 
4582 4587 4583 4582 1064 4587 4588 4570 1214 
4588 1214 4589 4588 4579 4590 4588 4590 4591 
4588 4591 4570 4588 4589 4579 4592 4591 4593 
4592 4594 4595 4592 4593 4584 4592 4584 4594 
4592 4595 4568 4592 4568 4591 405 403 4596 
405 4596 4597 405 4597 406 404 406 4598 
405 404 379 405 4599 403 405 379 4599 
4600 1339 4601 4600 402 4602 4600 1205 402 
4600 4601 1205 4600 4603 1339 4600 4602 4603 
4604 4605 396 4604 396 1206 4604 4606 4607 
4604 4607 4608 4604 4608 4605 4604 1206 4606 
4609 4597 4610 4609 4598 406 4609 4611 4598 
4609 406 4597 4609 4610 4612 4609 4612 4611 
4613 3935 4614 4613 4615 3935 4613 4612 4616 
4613 4617 4612 4613 4614 4617 4613 4616 4615 
4618 4619 4620 4618 1325 3974 4618 4621 1325 
4618 4622 4619 4618 3974 4622 4618 4620 4621 
4623 4622 3972 4623 4606 4624 4623 4625 4622 
4623 4626 4606 4623 3972 4626 4623 4624 4625 
4627 4628 1999 4627 4629 4630 4627 4630 4631 
4627 4632 4628 4627 4631 4632 4627 1999 4629 
4633 385 4634 4633 387 4635 4633 4636 391 
4633 4634 4636 4633 4635 385 372 4637 4638 
372 4638 4639 372 371 375 371 373 4640 
372 4639 373 372 375 4637 4641 399 4599 
4641 4642 4643 4641 4644 400 4641 400 399 
4641 4599 4642 4641 4643 4644 4645 1198 4646 
4645 4647 4648 4645 4648 4649 4645 4650 1198 
4645 4649 4650 4645 4646 4647 4651 4652 4653 
4651 4654 4655 4651 4656 4654 4651 4653 4657 
4651 4657 4656 4651 4655 4652 4658 4659 4652 
4658 4660 1213 4658 1213 4661 4658 4662 4659 
4658 4661 4662 4658 4652 4660 4663 358 4664 
4663 4664 4649 4663 4657 358 4663 4665 4657 
4663 4649 4666 4663 4666 4665 355 383 4667 
355 4668 383 355 4669 4668 352 355 4667 
355 354 4669 4670 4671 4021 4670 4021 4672 
4670 4672 4673 4670 4674 4675 4670 4673 4674 
4670 4675 4671 4676 4020 4677 4676 4678 4679 
4676 4672 4020 4676 4679 4672 4676 4677 4680 
4676 4680 4678 4681 4682 4683 4681 4683 4684 
4681 4500 4685 4681 4686 4500 4681 4685 4682 
4681 4684 4686 4687 4096 4688 4687 4688 4517 
4687 4689 4690 4687 4691 4096 4687 4690 4691 
4687 4517 4689 4692 4693 4694 4692 4695 4693 
4692 4696 4697 4692 4698 4696 4692 4694 4698 
4692 4697 4695 4699 4700 4701 4699 4702 4696 
4699 4696 4700 4699 4690 4702 4699 4701 4703 
4699 4703 4690 4704 4705 4706 4704 4707 4693 
4704 4693 4708 4704 4706 4707 4704 4708 4705 
4709 4502 4710 4709 4711 4712 4709 4713 4711 
4709 4710 4713 4709 4712 4714 4709 4714 4502 
4715 4716 4717 4715 4717 4718 4715 4719 4705 
4715 4705 4716 4715 4718 4719 4720 4721 4711 
4720 4717 4721 4720 4711 4722 4720 4722 4028 
4720 4028 4723 4720 4723 4717 4724 4725 1196 
4724 3910 1352 4724 1352 3909 4724 1196 4726 
4724 4726 3910 4724 3909 4725 4727 4728 1194 
4727 3907 4729 4727 4729 4730 4727 1194 4725 
4727 4730 4728 4727 4725 3907 4731 4732 3911 
4731 3911 4726 4731 4733 4732 4731 4726 1195 
4731 1195 4733 4734 4735 4736 4734 4728 4737 
4734 1358 4735 4734 1191 4728 4734 4736 1191 
4734 4737 1358 4738 4739 4740 4738 4741 4739 
4738 4740 4678 4738 4742 4743 4738 4743 4741 
4738 4678 4742 4744 348 4745 4744 4746 4747 
4744 4684 348 4744 4747 4684 4744 4741 4746 
4744 4745 4741 4748 4686 4747 4748 4504 4496 
4748 4749 4504 4748 4747 4750 4748 4496 4686 
4748 4750 4749 4751 4679 4740 4751 4673 4679 
4751 4740 4752 4751 4753 4673 4751 4752 4754 
4751 4754 4753 4755 347 4756 4755 4756 4757 
4755 4739 4745 4755 4752 4739 4755 4757 4752 
4755 4745 347 4758 1208 1209 4758 4759 345 
4758 4760 1208 4758 341 4760 4758 1209 4759 
4761 1187 4762 4761 4763 1341 4761 4764 1187 
4761 4762 4763 4761 1341 4765 4761 4765 4764 
4766 4767 1952 4766 4768 1179 4766 1952 4768 
4766 4769 4767 4766 1179 4770 4766 4770 4769 
4771 4772 1182 4771 1143 4773 4771 1182 4774 
4771 4775 1143 4771 4773 4772 4771 4774 4775 
4776 4777 1944 4776 1944 3634 4776 137 4778 
4776 4778 4777 135 139 136 135 137 4776 
3634 138 135 3634 135 4776 329 331 4779 
330 4780 331 330 329 333 330 335 4780 
4781 335 334 330 333 334 4782 1061 4783 
4782 4784 4785 4782 4786 1061 4782 4785 4787 
4782 4783 4784 4782 4787 4786 4788 4789 4790 
4788 4791 4792 4788 4792 4793 4788 4783 4789 
4788 4790 4791 4788 4793 4783 4794 1936 4795 
4794 4796 1936 4794 4795 4797 4794 4798 4796 
4794 4790 4798 4794 4797 4790 4799 4787 4800 
4799 4801 4802 4799 4800 4803 4799 4803 4804 
4799 4804 4801 4799 4802 4787 4805 4802 4806 
4805 1925 4807 4805 4806 1925 4805 4786 4802 
4805 1062 4786 4805 4807 1062 4808 3709 3650 
4808 3650 1926 4808 4806 4801 4808 1926 4806 
4808 4801 4809 4808 4809 3709 4810 4811 4812 
4810 4791 4797 4810 4813 4814 4810 4812 4813 
4810 4814 4791 4810 4797 4811 4815 4795 1935 
4815 1935 1922 4815 4816 4817 4815 1922 4816 
4815 4817 4811 4815 4811 4795 314 1177 4818 
314 4819 1177 314 313 4820 314 4820 4819 
312 314 4818 4821 4822 1162 4821 1162 4823 
4821 4824 1167 4821 1167 4825 4821 4823 4824 
4821 4825 4822 325 4826 328 4827 327 326 
325 328 326 4828 1168 4824 4828 4829 4830 
4828 4830 4831 4828 4832 1168 4828 4831 4832 
4828 4824 4829 4833 1159 4834 4833 4829 4823 
4833 4835 4836 4833 4834 4835 4833 4836 4829 
4833 4823 1159 4837 4838 4839 4837 317 4818 
4837 1175 4838 4837 4839 318 4837 318 317 
4837 4818 1175 319 306 309 305 307 3178 
306 305 309 306 4840 307 306 4841 4840 
4842 1892 141 4842 4843 4844 4842 4844 4845 
4842 141 4846 4842 4845 1892 4842 4846 4843 
4846 141 140 4846 140 4847 140 142 143 
140 144 4847 4847 144 322 4847 322 299 
4847 299 298 4847 298 4848 4847 4848 4846 
316 3175 3178 316 3178 307 316 318 4849 
315 307 4840 316 4849 3175 316 315 318 
4850 2421 4851 4850 4852 4853 4850 3057 4854 
4850 4853 2421 4850 4851 3057 4850 4854 4852 
4855 4856 4857 4855 1864 4856 4855 4858 4859 
4855 4857 4858 4855 4859 1864 4860 4861 4862 
4860 4852 4863 4860 4863 4864 4860 4862 4852 
4860 4865 4861 4860 4864 4865 294 4866 4867 
294 302 4868 294 293 4866 294 4867 302 
290 294 4868 300 302 4867 301 4869 4870 
301 304 4869 301 4870 302 301 300 304 
4871 1097 721 4871 1099 1097 4871 4872 4869 
4871 719 4872 4871 4869 1099 4873 4874 4875 
4873 4876 4877 4873 4877 4878 4873 4878 4874 
4873 4875 4876 285 4879 4880 4881 287 286 
285 287 4879 285 4880 288 285 288 286 
4882 4883 4884 4882 4885 4886 4882 4884 4885 
4882 4887 4883 4882 4886 3023 4882 3023 4887 
4888 4889 4863 4888 4854 3056 4888 3056 4890 
4888 4863 4854 4888 4890 4889 4891 4892 328 
4891 4874 4892 4891 4893 4894 4891 4894 4895 
4891 4895 4874 4891 328 4893 4896 4897 1840 
4896 1840 4898 4896 4899 4897 4896 4898 4900 
4896 4900 4901 4896 4901 4899 4902 1858 4903 
4902 4904 4905 4902 4906 4904 4902 4903 2755 
4902 4905 1858 4902 2755 4906 4907 4908 4909 
4907 4909 4910 4907 4911 4912 4907 4910 4911 
4907 4913 4908 4907 4912 4913 4914 4915 4916 
4914 4917 4915 4914 4918 4919 4914 4920 4918 
4914 4916 4920 4914 4919 4917 4921 4922 4920 
4921 4923 4924 4921 4924 4922 4921 4925 4923 
4921 4926 4925 4921 4920 4926 4927 4928 4929 
4927 4930 4928 4927 4929 4931 967 971 4932 
971 4933 4934 971 970 4933 4935 4936 4937 
4935 4937 4928 4935 4938 4939 4935 4939 4913 
4935 4913 4936 4935 4928 4938 4940 4917 4941 
4940 4941 4942 4940 970 969 4940 4943 4917 
4940 4942 970 4940 969 4943 4944 4945 4946 
4944 4946 4947 4944 4947 4948 4944 4929 4937 
4944 4937 4945 4944 4948 4929 4949 4950 284 
4949 4946 4950 4949 4951 4946 4949 280 4952 
4949 4952 4951 4953 4912 4954 4953 4936 4912 
4953 4950 4945 4953 4955 4950 4953 4954 4955 
4953 4945 4936 4956 284 4955 4956 2595 283 
4956 4957 2595 4956 4958 4957 4956 283 284 
4956 4955 4958 4959 4960 4947 4959 4947 4951 
4959 4951 4961 4959 4961 4962 4963 4964 4965 
4963 4966 4964 4963 4967 4966 4963 4968 4924 
4963 4924 4967 4963 4965 4968 4969 4966 4970 
4969 3687 4971 4969 4971 4966 4969 4970 4972 
4969 4972 3687 4973 4974 4975 4973 4976 4885 
4973 4977 4976 4973 4975 4977 4973 4978 4974 
4973 4885 4978 4979 953 1879 4979 1877 953 
4979 1879 293 4979 292 4980 4979 4980 1877 
4979 293 292 4981 4982 3140 4981 2422 4853 
4981 3140 2422 4981 4983 4982 4981 4853 4862 
4981 4862 4983 4984 2328 4985 4984 4985 278 
4984 4986 2328 4984 4987 4988 4984 276 4987 
4984 4988 4986 266 268 1903 276 268 4987 
268 267 4987 268 277 1903 4989 4990 1910 
4989 1912 1160 4989 1160 4822 4989 4991 4990 
4989 1910 1912 4989 4822 4991 263 262 1172 
263 1172 4819 263 4992 4993 261 263 4993 
263 4819 4992 4994 939 938 4994 938 1908 
4994 4820 939 4994 4992 4820 4994 1908 4995 
4994 4995 4992 253 255 4779 253 4779 331 
253 1148 254 253 252 255 252 254 1146 
253 331 1148 4996 4997 1139 4996 1440 4998 
4996 1139 4999 4996 590 1440 4996 4998 4997 
4996 4999 590 5000 5001 5002 5000 2189 5001 
5000 5002 5003 5000 5004 5005 5000 5005 2189 
5000 5003 5004 5006 5007 4632 5006 5008 5007 
5006 5009 5008 5006 5010 4643 5006 4643 5009 
5006 4632 5010 5011 3503 5012 5011 4465 3504 
5011 3504 3503 5013 5014 5015 5013 5016 5017 
5013 5018 5014 5013 5015 5016 5019 3502 3514 
5019 3514 5020 5019 5012 3502 5021 5022 2054 
5021 2054 5023 5021 5023 4459 5021 4459 5024 
5021 5024 2049 5021 2049 5022 5025 4391 5026 
5025 5027 4394 5025 4394 4391 5028 4278 4162 
5028 5029 4229 5028 4162 4417 5028 4417 5030 
5028 5030 5029 5028 4229 4278 5031 5032 5033 
5031 5029 5034 5031 132 4226 5031 5034 5032 
5031 5033 132 5031 4226 5029 5035 5036 5037 
5035 4424 5038 5035 5038 4199 5035 5039 4424 
5035 5037 5039 5035 4199 5036 5040 5041 5037 
5040 5042 2790 5040 2790 5043 5040 5043 5041 
5040 5044 5042 5040 5037 5044 249 247 250 
249 5045 5046 249 4399 247 249 5046 4399 
5045 251 5047 5045 249 251 5048 147 447 
5048 445 129 5048 447 445 5048 129 4381 
145 147 5048 145 149 146 4381 145 5048 
4381 148 145 241 5049 1288 241 1288 5050 
241 5051 5049 241 240 5051 239 241 5050 
5052 5053 5054 5052 5054 5055 5052 5056 5053 
5052 5055 5057 5052 5057 4175 5052 4175 5056 
5058 5059 5060 5058 5061 5062 5058 5063 5059 
5058 5055 5061 5058 5060 5055 5058 5062 5063 
5064 5065 4166 5064 5053 5066 5064 5066 5065 
5064 4166 5067 5064 5067 5068 5064 5068 5053 
5069 5070 5067 5069 4168 480 5069 480 479 
5069 5067 4168 5069 479 5071 5069 5071 5070 
5072 1236 3828 5072 5073 1132 5072 5074 1236 
5072 1132 1135 5072 3828 5073 5072 1135 5074 
5075 5076 5077 5075 5077 5078 5075 5078 3960 
5075 3960 5079 5075 5079 5076 5080 5081 5082 
5080 3089 3961 5080 5082 3226 5080 5078 5081 
5080 3961 5078 5080 3226 3089 5083 1364 5084 
5083 5085 1364 5083 5086 5087 5083 5084 5086 
5083 5087 5088 5083 5088 5085 5089 5090 5091 
5089 5091 5092 5089 5092 3879 5089 5088 5090 
5089 3879 5093 5089 5093 5088 5094 1387 5095 
5094 5096 1387 5094 5095 5097 5094 5097 5086 
5094 5086 5096 5098 5099 3720 5098 5100 5101 
5098 5102 5100 5098 3720 5102 5098 5101 5103 
5098 5103 5099 5104 5105 5106 5104 5107 5108 
5104 5109 5105 5104 5110 5109 5104 5106 5107 
5104 5108 5110 5111 5112 5113 5111 153 5114 
5111 3858 153 5111 5114 5115 5111 5115 5112 
5111 5113 3858 5116 228 5117 5116 5118 5114 
5116 5117 5118 5116 152 228 150 154 151 
150 152 5116 5114 150 5116 5114 153 150 
5119 5117 5120 5119 5121 5117 5119 5122 5121 
5119 3742 5122 5119 5123 3742 5119 5120 5123 
5124 3823 1228 5124 1128 5125 5124 1228 5126 
5124 1130 1128 5124 5125 3823 5124 5126 1130 
5127 1126 3838 5127 111 1384 5127 5128 1126 
5127 1384 5129 5127 3838 111 5127 5129 5128 
5130 5131 1120 5130 1120 5132 5130 1394 5133 
5130 5134 1394 5130 5132 5134 5130 5133 5131 
5135 5136 5137 5135 5138 1404 5135 1404 5136 
5135 5137 1122 5135 5139 5138 5135 1122 5139 
5140 5141 3383 5140 5142 3680 5140 3680 5143 
5140 5143 5141 5140 3383 5144 5140 5144 5142 
218 5141 5145 218 5145 5146 218 3384 5141 
218 217 3384 216 218 5146 5147 5148 5145 
5147 3712 5149 5147 3679 3712 5147 5149 5148 
5147 5143 3679 5147 5145 5143 5150 1433 5151 
5150 1111 5152 5150 5153 1111 5150 3699 1433 
5150 5151 5153 5150 5152 3699 5154 1446 2131 
5154 2131 5155 5154 5156 1446 5154 5157 5156 
5154 5155 1115 5154 1115 5157 208 210 3527 
210 209 3627 210 3627 3629 210 3629 5158 
210 5158 3527 5159 883 3666 155 159 5159 
5159 159 884 5160 156 155 5159 3666 5160 
5159 884 883 155 157 158 5160 155 5159 
5161 5162 5163 5161 5163 2155 5161 3667 5162 
5161 5160 3667 5161 2155 156 5161 156 5160 
5164 5165 5166 5164 1970 3648 5164 5166 1970 
5164 5167 5165 5164 3654 5167 5164 3648 3654 
5168 2169 5169 5168 3659 2161 5168 3653 3659 
5168 2161 2169 5168 5169 5167 5168 5167 3653 
5170 5165 5169 5170 2171 3643 5170 5169 2171 
5170 5171 5165 5170 3643 3641 5170 3641 5171 
5172 1971 5166 5172 3633 1972 5172 3640 3633 
5172 1972 1971 5172 5166 5171 5172 5171 3640 
5173 1450 5174 5173 2174 2180 5173 2180 1450 
5173 5175 2174 5173 5174 5176 5173 5176 5175 
5177 5178 5179 5177 3462 5180 5177 5181 3462 
5177 5179 5181 5177 5180 5182 5177 5182 5178 
5183 5184 5185 5183 5185 3448 5183 3436 5186 
5183 3448 3436 5183 5182 5184 5183 5186 5182 
5187 3422 5188 5187 5189 1109 5187 1109 5190 
5187 5188 3417 5187 3417 5189 5187 5190 3422 
5191 1529 3428 5191 5192 1105 5191 1105 5189 
5191 3416 1529 5191 3428 5192 5191 5189 3416 
5193 5194 5195 5193 5195 3313 5193 5196 5197 
5193 5198 5196 5193 3313 5198 5193 5197 5194 
5199 5200 5201 5199 3301 5202 5199 5202 5203 
5199 5203 5197 5199 5201 3301 5199 5197 5200 
5204 1169 4832 5204 4832 5205 5204 5205 5206 
5204 5207 2351 5204 2351 1169 5204 5206 5207 
5208 3845 3847 5208 3847 676 5208 5209 5210 
5208 5210 3845 5208 676 5211 5208 5211 5209 
5212 1174 2358 5212 4838 1174 5212 5213 5214 
5212 2358 5213 5212 5214 5215 5212 5215 4838 
5216 5217 5218 5216 724 708 5216 707 5217 
5216 5218 5219 5216 5219 724 5220 2933 3017 
5220 5221 5222 5220 3068 5221 5220 5222 2967 
5220 2967 2933 5220 3017 3068 5223 2392 3065 
5223 2400 2392 5223 5224 5225 5223 5225 2400 
5223 5226 5224 5223 3065 5226 5227 5228 3058 
5227 5225 5229 5227 3058 2396 5227 5229 5230 
5227 5230 5228 5227 2396 5225 5231 5232 5233 
5231 5234 751 5231 5233 5235 5231 5236 5232 
5231 751 5236 5231 5235 5234 174 750 746 
751 176 5236 174 746 5237 751 174 176 
750 751 5234 174 5237 175 5238 758 764 
758 761 764 758 757 761 757 759 5239 
758 5240 759 5241 5242 5239 5241 5243 798 
5241 5244 5242 5241 5239 759 5241 798 5244 
5241 759 5243 5245 3000 5246 5245 5246 5247 
5245 5248 5249 5245 5249 3000 5250 5251 2574 
5250 2584 3001 5250 5252 5251 5250 5249 5252 
5250 3001 5249 5250 2574 2584 2826 785 776 
776 5253 777 776 785 788 776 788 5253 
814 816 1712 815 5254 816 815 5255 5256 
815 814 818 815 5256 5254 815 818 5255 
5257 817 2729 5257 818 817 5257 5258 5259 
5257 5260 818 5257 5259 5260 5257 2729 5258 
5261 5262 2752 5261 5263 5262 5261 1092 5264 
5261 5265 1092 5261 2752 5265 5261 5264 5263 
2746 5266 1085 2746 1085 5267 2746 5268 1704 
2746 5267 5268 5269 1086 5266 5269 5270 1086 
5269 5271 2740 5269 2740 5270 5269 5266 2745 
5269 2745 5271 5272 171 5273 5272 5274 5275 
5272 5275 5276 5272 5276 171 5272 5277 5274 
5272 5273 5277 5278 5279 5280 5278 5280 5277 
5278 2838 5279 5278 5281 783 5278 5277 5281 
5278 783 2838 165 5282 171 170 171 5276 
165 173 166 165 170 173 5282 167 5283 
5282 165 167 5284 5281 5273 5284 5282 5283 
5284 5273 5282 5284 5285 5281 5284 5283 5286 
5284 5286 5285 5287 5288 5289 5287 5289 5290 
5287 5286 5291 5287 5291 5292 5287 5292 5288 
5287 5290 5286 5293 2646 5294 5293 5294 5295 
5293 1528 2641 5293 3704 1528 5293 5295 3704 
5293 2641 2646 5296 5297 5298 5296 5299 5297 
5296 2372 5300 5296 5300 2367 5296 5298 2372 
5296 2367 5299 5301 2374 5298 5301 1749 1750 
5301 1750 2374 5301 5298 5302 5301 5303 1749 
5301 5302 5303 5304 5305 5306 5304 2289 2313 
5304 5307 2287 5304 5306 5307 5304 2313 5305 
5304 2287 2289 5308 5309 5310 5308 2163 2139 
5308 5310 2163 5308 5311 5309 5308 2139 2136 
5308 2136 2135 5308 2135 5311 5312 2162 5310 
5312 2165 2162 5312 5313 2165 5312 5314 5313 
5312 5309 5314 5312 5310 5309 5315 5316 5317 
5315 5318 5319 5315 5320 2042 5315 5319 5316 
5315 5317 5320 5315 2042 5318 5321 5322 5323 
5321 1984 1932 5321 1932 5324 5321 5323 1984 
5321 5324 5325 5321 5325 5322 5326 5322 5327 
5326 929 928 5326 5327 929 5326 1958 5328 
5326 928 1958 5326 5328 5322 5329 1964 1986 
5329 1982 5323 5329 1986 1982 5329 1957 1964 
5329 5328 1957 5329 5323 5328 5330 5331 1897 
5330 1885 5331 5330 1897 5332 5330 5333 1885 
5330 5334 5333 5330 5332 5334 5335 5336 5337 
5335 5337 945 5335 945 948 5335 5338 5334 
5335 948 5338 5335 5334 5336 5339 5340 1842 
5339 5341 5342 5339 1849 5343 5339 5343 5340 
5339 1842 5341 5339 5342 1849 5336 5334 5332 
5336 5332 5344 5345 5337 5336 5345 5336 5344 
5323 5322 5328 5346 5347 5348 5349 5347 5346 
2040 5350 5351 5317 5348 5352 5317 5346 5348 
5316 5350 5346 5316 5351 5350 5316 5346 5317 
5320 5352 5353 5320 5317 5352 5319 5354 5351 
5319 5351 5316 5355 5356 5357 5355 5357 2135 
5310 2162 2163 5358 5359 5360 5358 2144 5359 
5361 5359 5362 5361 5360 5359 5314 5361 5362 
5314 5309 5361 5363 5313 5314 5363 5314 5362 
5364 5357 5356 5365 5364 5356 2335 5366 2342 
5367 2342 5366 5367 2339 2342 5368 5369 2348 
5368 2348 2339 5368 2339 5367 5370 5371 5369 
5370 5369 5368 5372 24 5371 5372 5371 5370 
5373 5374 5375 2616 5376 5377 1435 5377 5376 
5286 5283 5291 5277 5280 5274 5273 5281 5277 
171 5282 5273 5378 2741 2734 5378 2734 2739 
5379 5380 1083 5379 2739 2738 5379 2738 5380 
5379 1087 5378 5379 1083 1087 5379 5378 2739 
5270 1087 1086 5270 5378 1087 5270 2741 5378 
2740 2741 5270 5267 1085 1088 5266 1086 1085 
5266 2746 2745 5381 5382 4151 5381 4151 1091 
775 5382 5381 2902 775 5381 5383 5381 1091 
5383 1091 1090 5383 2900 2902 5383 2902 5381 
5384 5383 1090 5384 2753 5385 5384 5385 2900 
5384 2900 5383 5265 1090 1092 5265 5384 1090 
5265 2752 2753 5265 2753 5384 4369 5386 1286 
5387 5388 5389 5390 5387 5391 5390 5386 4369 
4371 5387 5390 4371 5390 4369 4371 5388 5387 
5259 5392 5393 5258 5392 5259 5256 5387 5389 
5256 5391 5387 5254 5256 5389 5255 5391 5256 
5255 818 5260 5394 5391 5255 5394 5255 5260 
5395 5260 5259 5395 5394 5260 5395 5259 5393 
5396 5391 5394 5396 5390 5391 5396 5386 5390 
5397 2679 5398 5399 5397 5398 5399 5398 2771 
5400 2771 5398 5401 3811 5402 3818 3811 5401 
3810 5402 3811 3810 5403 5402 3810 5404 5403 
3465 5402 5403 1516 3465 5403 2511 1516 5403 
2511 5403 5404 5240 178 5243 5240 5243 759 
5405 5236 178 5405 178 5240 5405 5232 5236 
4831 5205 4832 672 5205 4831 5406 5206 5205 
5406 5205 672 3284 3262 5407 650 3284 5407 
1574 5407 3262 5408 1558 5409 5202 5410 5411 
5203 5411 5408 5203 5202 5411 5197 5196 5200 
5194 5409 5195 5194 5408 5409 5194 5197 5203 
5194 5203 5408 5412 5201 5200 5413 5201 5412 
5414 5196 5198 5415 5200 5196 5415 5414 1579 
5415 5412 5200 5415 5196 5414 196 84 1108 
5190 84 83 5190 1108 84 5190 1109 1108 
5189 1105 1109 5189 3417 3416 3422 5190 83 
5188 3422 3423 5416 5417 5418 5192 1106 1105 
5192 5418 1106 3429 5418 5192 3429 5192 3428 
3429 5416 5418 5419 1106 5418 5419 5418 5417 
5419 5417 5420 1107 1106 5419 5421 1107 5419 
5421 5420 5422 5421 5419 5420 5421 197 1107 
200 5421 5422 5178 5182 5186 5179 5423 5181 
5179 5424 5423 5425 5423 5424 3471 5426 5427 
5428 5429 5427 5428 5427 5426 5430 5431 5432 
5433 5434 5435 5436 5434 5437 5436 5435 5434 
5438 5437 4456 5438 5439 5436 5438 5436 5437 
5438 4456 5440 5441 5439 5438 5441 5438 5440 
5441 5440 5442 5443 5176 5432 5443 5432 5431 
5171 3641 3640 2169 2171 5169 5167 3654 3653 
5165 5167 5169 5165 5171 5166 3666 3667 5160 
5444 5445 159 5444 2214 5445 5444 159 158 
2220 2214 5444 5446 158 157 5447 5444 158 
5447 158 5446 5447 205 2220 5447 2220 5444 
5446 201 203 5446 203 5447 201 3524 202 
201 5448 3524 5449 3524 5448 612 5450 214 
612 214 212 1050 1255 5451 215 1050 5451 
3629 215 5451 3629 5451 5158 213 215 3629 
213 212 214 1051 1050 215 1051 214 5450 
1051 215 214 5157 1115 1112 5452 5157 1112 
5453 5157 5452 5453 5156 5157 5454 5455 3400 
3702 5455 5454 5456 3400 5455 5153 5452 1112 
5153 1112 1111 5152 5455 3702 3398 3400 5456 
5457 5458 2126 5457 1114 5458 5457 5456 1114 
5457 3398 5456 1113 1115 5155 1113 5458 1114 
5148 5149 5459 5148 5459 5460 5146 5148 5460 
5145 5148 5146 5141 3384 3383 5141 5143 5145 
5128 5461 1127 5128 1127 1126 3838 1126 1125 
3838 1125 3839 5125 1127 5461 5125 1128 1127 
5462 5463 1130 5462 1130 5126 225 1130 5463 
1129 3839 1125 5464 1129 225 5464 221 3842 
6 5465 7 6 5115 5465 5121 5465 5115 
5121 5122 5465 5466 5123 5120 227 103 1413 
227 1413 5466 227 5466 5120 5467 151 2318 
5467 2318 3737 5467 3737 104 104 103 226 
104 226 5467 152 151 5467 228 227 5120 
226 152 5467 228 226 227 5118 5121 5115 
5117 228 5120 5117 5121 5118 5114 5118 5115 
5112 5115 6 230 229 233 229 231 3849 
5468 3794 5469 5468 5470 5471 5468 5471 3794 
5105 5470 5468 5105 5109 5470 5105 5468 5472 
5106 5105 5472 5473 5470 5109 5474 5103 5473 
5474 5473 5109 5474 5109 5110 5474 5110 5475 
5474 5099 5103 5474 5475 5099 5476 5477 3784 
5476 3784 3778 5478 5476 5479 5480 3776 3789 
5480 5481 3776 5482 5483 3588 5484 5483 5482 
5484 5478 5479 5485 5482 1368 5485 5484 5482 
5485 5478 5484 3589 3588 5483 5097 5486 5487 
5095 5486 5097 5488 911 5489 5091 5488 5489 
5091 5490 5488 5091 5090 5490 5091 5489 5092 
5088 5087 5090 5088 5093 5085 5086 5097 5087 
5086 5084 5096 5062 5491 5492 5055 5060 5057 
4326 5493 5494 4325 5493 4326 1041 4327 4326 
1041 4326 5494 4341 1072 1071 4341 1071 5495 
5496 4341 5495 5496 1076 4343 5496 4343 4341 
5497 239 5050 244 248 245 244 246 5051 
5051 246 5049 1137 247 244 247 4399 248 
5037 5036 5044 5034 5498 5499 5032 5034 5499 
5029 4226 4229 5030 5498 5034 5030 5034 5029 
2054 2053 5023 5022 2055 2054 2050 2049 5024 
3514 5018 5020 3514 5014 5018 5500 5501 5502 
5503 5501 5500 4498 4505 5504 2033 4498 5504 
136 591 5505 4999 1141 5505 4999 5505 591 
4999 1139 1141 4999 591 590 2263 5506 5507 
2267 5506 2263 2264 5508 5509 2264 5509 2265 
2264 5507 5508 2264 2263 5507 5510 252 1146 
5510 256 252 4819 4820 4992 4993 4992 4995 
5511 5512 4993 5511 4993 4995 1907 4995 1908 
1907 5511 4995 1907 1910 4990 1907 4990 5511 
5513 5512 5511 5513 5511 4990 4991 4822 5514 
4991 5513 4990 5515 5513 4991 5515 5514 5516 
5515 4991 5514 4988 267 5517 4988 5517 5518 
4988 5518 4986 4987 267 4988 277 276 279 
5519 277 279 5519 5520 277 4834 5520 5519 
4834 5519 4835 5521 4835 5519 5521 5519 279 
4984 278 276 278 4985 5522 278 5521 279 
278 5522 5521 5523 4835 5521 5523 5521 5522 
5524 5430 5432 5525 5453 3685 5525 5156 5453 
5526 5527 1448 5528 5527 5526 4972 5528 5526 
4972 5525 3685 4972 5526 5525 5529 5530 1151 
4964 5530 5529 4964 4966 4971 4964 4971 5530 
4967 4924 4923 5531 5527 5528 5531 5532 5524 
5533 4923 5532 5533 4967 4923 5533 5532 5531 
5533 5531 5528 4970 4966 4967 4970 4967 5533 
4970 5533 5528 4970 5528 4972 4961 5534 4962 
4961 5535 5534 4960 4948 4947 4950 4955 284 
4952 5535 4961 4952 4961 4951 4946 4945 4950 
4946 4951 4947 4937 4936 4945 4933 970 4942 
4929 4948 4931 4928 4937 4929 5536 5537 5538 
5539 5540 5541 5539 5342 5341 5539 5341 5540 
5542 5541 5543 5542 5539 5541 5544 5545 5537 
5544 5537 5536 5546 5542 5543 5546 5544 5536 
5546 5536 5542 5547 5548 5549 5550 5547 5549 
5551 5430 5524 5551 5524 5532 5552 5547 5550 
5553 5551 5552 5553 5430 5551 5553 5552 5550 
5554 5550 5549 5554 5555 5556 5557 5554 5556 
5557 5556 5433 5557 5553 5550 5557 5550 5554 
5558 5553 5557 5558 5435 5431 5558 5431 5430 
5558 5430 5553 5558 5557 5433 5558 5433 5435 
4925 5532 4923 4925 5552 5551 4925 5551 5532 
4922 4924 4968 4926 5552 4925 4926 5547 5552 
4915 4943 5559 4915 5559 5548 4915 4917 4943 
4916 4915 5548 4916 5547 4926 4916 5548 5547 
4920 4922 4918 4920 4916 4926 1150 5529 1151 
1150 1154 5560 5561 1150 5560 5561 5529 1150 
4965 4964 5529 4965 5529 5561 4965 5562 4968 
4965 5561 5562 4939 4938 5563 5564 4939 5563 
4941 5564 5563 4941 5563 4942 4919 5564 4941 
4919 4941 4917 4912 4936 4913 4908 4939 5564 
4908 4913 4939 4910 5561 5560 4910 5562 5561 
4910 4909 5562 5565 5560 1154 4954 4912 4911 
5566 4911 4910 5566 4910 5560 5566 5560 5565 
4958 4955 4954 4379 5567 5568 5569 4379 5568 
5569 5568 5570 5571 2760 5572 5571 5569 5570 
4906 5571 5570 4906 5570 4904 4906 2760 5571 
4905 5573 1856 1858 4905 1856 2755 2760 4906 
5574 4904 5570 5575 5574 4900 5576 5573 4905 
5576 4904 5574 5576 4905 4904 5576 5574 5575 
5577 5570 5568 5577 5574 5570 5577 4900 5574 
4901 4900 5577 5578 4899 4901 5579 5578 4901 
5579 4901 5577 5579 5577 5568 5579 5568 5567 
5580 5578 5579 5580 5579 5567 4885 4976 4886 
5581 5582 5583 5581 5583 5584 4877 5582 5581 
4874 4881 4892 292 5585 4980 291 5586 3137 
291 5585 292 3141 291 3137 3141 5585 291 
5586 291 290 5586 290 4868 4868 4870 5587 
4868 5587 5586 302 4870 4868 293 290 292 
5588 5589 4889 4864 4863 4889 4864 4889 5589 
4857 5588 5590 4857 5589 5588 4858 5590 5591 
4858 4857 5590 4861 4983 4862 5592 4983 4861 
5593 4865 5594 5593 4861 4865 5593 5592 4861 
4852 4854 4863 4853 4852 4862 304 1099 4869 
304 186 1099 5595 1098 186 5595 186 304 
296 1098 5595 5596 5597 5215 3167 5597 5596 
80 5597 3167 4849 5597 80 3175 4849 80 
4876 5582 4877 5598 4876 5599 5598 5582 4876 
5600 5598 5599 4978 5581 5584 4978 4884 5581 
4978 4885 4884 4978 5584 4974 286 289 4892 
4826 5601 4893 4875 5599 4876 4875 4895 5602 
4875 5602 5599 4875 4874 4895 5603 5599 5602 
5604 5603 5605 270 5604 5605 4894 5602 4895 
5606 4893 5601 5607 4894 5606 5607 5602 4894 
5607 5603 5602 5607 5605 5603 5608 5606 5601 
5608 5607 5606 4894 4893 5606 297 296 298 
297 299 1156 4867 4866 5609 5610 4867 5609 
303 298 296 303 4848 298 303 296 5595 
303 5595 304 5610 303 300 5610 300 4867 
303 5610 4848 4843 5610 5609 4843 4846 4848 
4843 4848 5610 4844 4843 5609 4838 1175 1174 
4839 4838 5215 4839 5597 4849 4839 4849 318 
4839 5215 5597 4818 317 310 4818 310 312 
310 315 4840 310 317 315 319 143 142 
319 320 4841 5611 311 310 5611 4840 4841 
5611 310 4840 5612 311 5611 941 5611 4841 
941 4841 320 941 320 32 941 5612 5611 
322 1156 299 324 1156 322 319 4841 306 
3177 305 3178 321 144 308 308 144 143 
308 143 309 3177 308 305 321 324 322 
328 4892 289 328 4826 4893 1103 289 288 
326 289 1103 1158 5520 4834 5613 5608 5517 
5613 5517 267 5613 5607 5608 5613 5605 5607 
271 273 5518 273 4986 5518 5614 273 272 
5614 272 5615 4825 1166 5516 4825 5514 4822 
4825 5516 5514 1162 4822 1160 1167 1166 4825 
4824 4823 4829 1177 4819 1172 1177 1175 4818 
313 312 311 313 939 4820 4816 5616 5617 
4817 4816 5617 4817 5617 5618 4812 4817 5618 
4811 4817 4812 4809 597 3709 4806 1926 1925 
4800 5508 5507 4803 5507 5506 4803 4800 5507 
4803 5506 5619 4803 5619 4804 4801 4806 4802 
4801 4804 4809 4795 1936 1935 4795 4811 4797 
4790 4797 4791 4796 1060 5620 5621 5620 1060 
1059 1062 4807 1059 5621 1060 5622 5621 1059 
5622 1059 4807 4785 5508 4800 4785 4800 4787 
4786 4787 4802 1061 4786 1062 4783 1061 4789 
331 4780 1148 1536 1537 5623 1536 5623 5624 
16 1536 5624 334 16 5624 5625 1148 4780 
259 5618 260 259 4812 5618 5625 257 1148 
5625 259 257 259 5625 4813 259 4813 4812 
5626 5509 5508 5626 5508 4785 4784 5626 4785 
4784 4783 4793 5627 4784 4793 5627 5626 4784 
5628 5624 5623 5629 5627 5628 5629 5628 5623 
5629 5626 5627 5629 5509 5626 4814 4792 4791 
5630 5625 4780 5630 4814 4813 5630 4813 5625 
4781 5624 5628 335 5630 4780 4781 334 5624 
137 136 5505 5631 5505 1141 5631 137 5505 
4773 5632 4772 5633 3607 3615 5634 4770 5633 
5634 5633 3615 5634 4769 4770 5635 3605 3607 
5635 3607 5633 5636 4772 5632 5636 5632 3620 
5636 3620 3605 5636 3605 5635 5637 5638 5639 
5637 5639 5640 5637 5640 5641 5642 5643 5644 
5642 5641 5643 5642 5637 5641 1955 5644 5643 
1955 5643 4768 5645 5646 1953 4762 5647 4763 
5648 5647 4762 3934 5647 5648 3934 5648 4614 
5649 4614 5648 4759 1209 5650 5651 4759 5650 
4611 5651 5650 4617 5651 4611 4617 5649 5651 
4617 4614 5649 4757 5652 5653 4756 342 5652 
4756 5652 4757 5654 5653 4764 4765 5654 4764 
1344 4765 1341 4754 4757 5653 4754 5653 5654 
4752 4757 4754 4739 4752 4740 4739 4741 4745 
1192 4736 5655 5656 1192 5655 4725 3909 3907 
3910 4726 3911 5657 5658 5659 4722 5659 4029 
4722 4029 4028 4718 4723 5660 4718 4717 4723 
4714 5661 5662 4712 5661 4714 4713 5659 4722 
4713 5657 5659 4713 4722 4711 4706 4705 4719 
4706 5663 5664 4707 5664 5656 4707 4706 5664 
5665 5662 5661 5665 5666 5662 5665 5661 4716 
5667 5665 4716 5667 4705 4708 5667 4716 4705 
5668 5666 5665 5668 5669 5666 5668 5665 5667 
5668 5667 4708 5670 4718 5660 5670 5660 5671 
5670 4719 4718 5672 4706 4719 5672 4733 5663 
5672 5663 4706 5672 4719 5670 5673 5674 4732 
5673 4732 4733 5673 4733 5672 5673 5670 5671 
5673 5671 5674 5673 5672 5670 5675 4708 5676 
5675 5668 4708 5677 5655 4736 5677 5678 4701 
4735 1357 5678 4735 5678 5677 4735 1358 1357 
4735 5677 4736 5679 1219 5680 4693 5676 4708 
4697 4702 5679 4697 5679 5680 4695 4697 5680 
4695 5676 4693 4695 5680 5676 4696 4702 4697 
4694 4707 5656 4694 4693 4707 4698 5656 5655 
4698 4694 5656 4689 5679 4702 4689 4702 4690 
5681 5682 4742 5683 5682 5681 5683 5684 5682 
5685 5684 5683 5686 5687 5658 5686 5658 5657 
5686 5685 5687 4506 4504 4749 4506 4710 4502 
5688 4710 4506 5688 4749 5689 5688 4506 4749 
5690 5684 5685 5690 5689 5684 5690 5688 5689 
5690 5685 5686 5691 4710 5688 5691 5688 5690 
5691 5657 4713 5691 4713 4710 5691 5686 5657 
5691 5690 5686 4684 4747 4686 4500 4686 4496 
348 347 4745 4683 348 4684 346 348 4683 
350 347 346 350 342 4756 350 4756 347 
5692 1207 4760 5693 349 346 343 5692 4760 
343 342 350 343 350 349 341 343 4760 
343 349 5692 4680 5681 4742 4680 4742 4678 
4679 4678 4740 4672 4679 4673 5694 4765 1344 
5694 5654 4765 4753 4754 5654 4753 5654 5694 
4674 4673 4753 4674 4753 5694 5695 5694 1344 
5695 4674 5694 4664 357 5696 359 5697 5698 
359 5699 5697 357 360 5696 359 5698 360 
4014 4012 5698 4014 5698 5697 4015 4014 5697 
5700 5697 5699 5700 5701 4015 5700 4015 5697 
5702 5701 5700 4662 5699 4659 4662 5700 5699 
4662 4661 5702 4662 5702 5700 4652 4655 4660 
4653 4652 4659 4657 4653 358 4656 4657 4665 
5703 4665 4666 388 5703 4666 5704 4654 4656 
5705 5704 4656 5705 4656 4665 5705 4665 5703 
5706 5707 3985 5708 1202 5707 4650 5696 1199 
4650 4649 4664 4650 4664 5696 4648 388 4666 
4648 4666 4649 1198 4650 1199 5709 5707 1202 
5709 1202 1201 5709 1201 5710 5709 370 3985 
5709 3985 5707 5709 5710 370 363 360 5698 
363 5698 4012 361 363 4012 362 361 365 
5711 1199 5696 5711 5696 360 5711 360 363 
5711 363 362 1203 5711 362 1203 1199 5711 
5712 4007 5710 5712 5710 1201 5712 1201 1203 
5712 1203 362 5712 362 365 5712 365 4007 
4668 4669 5713 4668 5713 5714 384 383 4668 
384 4668 5714 5715 4646 353 5715 352 4667 
5716 5715 4667 4647 4646 5715 4647 5715 5716 
389 388 4648 389 4648 4647 389 4647 5716 
386 5716 4667 386 4667 383 5717 5713 4669 
5718 5707 5706 5718 5708 5707 378 5717 4669 
354 5719 378 354 378 4669 378 5719 3983 
3983 5719 5718 3983 5718 5706 378 377 5717 
351 5718 5719 5715 353 352 351 354 352 
351 5719 354 351 5708 5718 351 353 5708 
4642 5009 4643 4638 4637 5720 382 384 4639 
382 386 383 373 5714 4640 373 384 5714 
373 4639 384 4635 389 5716 4635 5716 386 
387 389 4635 385 4635 386 5721 385 382 
5722 5720 4637 4644 4643 5010 4644 5010 5722 
4636 4634 5723 5724 4636 5723 5725 5726 391 
5725 4636 5724 5725 391 4636 4631 5720 5722 
4631 4630 5720 4631 5722 5010 4631 5010 4632 
4629 5724 5723 4629 5723 4630 4629 2002 5724 
4629 1999 2002 4628 4632 5007 1206 5727 4624 
1206 4624 4606 4620 5714 5713 4620 4640 5714 
4621 4620 5713 4621 5713 5717 3974 3972 4622 
4619 4625 5728 4619 4622 4625 4619 4640 4620 
4619 5728 4640 5729 5728 4625 5729 4624 5727 
5729 4625 4624 5730 5722 4637 5730 4644 5722 
400 4644 5730 375 5730 4637 5728 371 4640 
5728 374 371 374 5728 5729 5731 5730 375 
5732 394 397 397 398 399 397 400 5731 
5731 375 374 5731 400 5730 5732 374 5729 
5732 5727 394 5732 5729 5727 5732 5731 374 
5732 397 5731 4612 4617 4611 403 399 398 
403 4599 399 4596 401 1205 381 5008 5009 
338 340 1209 340 5650 1209 340 404 4598 
4598 5650 340 4598 4611 5650 4610 4616 4612 
4610 5733 4616 5734 4610 4597 5734 4597 4596 
5734 4601 5733 5734 5733 4610 5734 1205 4601 
5734 4596 1205 340 339 404 379 4642 4599 
4642 379 380 4642 380 5009 4574 4580 4573 
5735 4655 4654 4568 4570 4591 5736 4566 5737 
5738 5702 4661 5739 5701 5702 5739 5702 5738 
5739 5738 5736 4567 4566 5736 4567 5736 5738 
4581 4589 5740 4581 4579 4589 5741 4660 4655 
5741 4655 5735 4562 5740 5742 4564 4562 5742 
4564 5742 5741 4564 5741 5735 4560 4564 5735 
5743 4573 4580 5744 4572 4573 5744 4573 5743 
4552 5744 5743 4545 4581 5740 4545 4544 4581 
4545 4562 4547 4545 5740 4562 4543 4547 4563 
4536 4552 5743 4541 4552 4536 5745 5746 4550 
4556 4555 5746 4556 5746 5745 5747 4556 5745 
5747 5745 4534 5748 4534 5745 5748 5745 4550 
4549 5748 4550 4539 4549 4541 5749 4549 4539 
4558 4556 5747 4533 4534 5748 5750 4549 5749 
5750 5749 2020 5750 5748 4549 5750 4533 5748 
2016 4533 5750 2016 5750 2020 2016 2015 4533 
4540 4537 4543 4528 5751 5752 4523 4521 5753 
4523 5753 5751 4532 5747 4534 5754 5752 4558 
5754 5747 4532 5754 4558 5747 4512 5754 4532 
4529 5754 4512 4529 5752 5754 4529 4528 5752 
4518 4688 5755 4518 4517 4688 4513 4512 4532 
4509 5755 4525 4509 4518 5755 4510 4509 4525 
4510 4529 4512 4508 4518 4509 4531 4511 4513 
2014 4531 2015 1218 5680 1219 4516 1219 5679 
4516 1222 1219 4516 5679 4689 4516 4689 4517 
5756 4531 2014 5756 4511 4531 4515 5756 1220 
4515 1220 1222 4515 4511 5756 4515 4508 4511 
2027 1220 5756 5757 1996 5758 5759 1223 5757 
5759 5680 1218 5760 5757 5758 5759 1218 1223 
5759 5676 5680 5759 5675 5676 5760 5669 5668 
5760 5759 5757 5760 5668 5675 5760 5675 5759 
5761 5757 1223 5761 1996 5757 4503 4714 5662 
4503 5504 4505 4503 4502 4714 5762 4503 5662 
5762 5504 4503 5762 5662 5666 4497 4505 4498 
4497 4496 4504 3825 5125 5461 4494 5501 5503 
1225 1227 4494 1225 4494 5503 5763 5764 4475 
5765 5763 1226 5765 1226 1225 5765 1225 5503 
5765 5503 5500 5766 5763 5765 5766 5764 5763 
5766 5765 5500 5766 5767 5764 5768 5767 5766 
5768 5500 5502 5768 5766 5500 5769 5768 5502 
5770 5767 5768 5771 5768 5769 5771 5772 5773 
5771 5770 5768 5771 5773 5770 1232 4494 1233 
1232 5501 4494 5774 5772 5771 5775 5776 5774 
5777 5771 5769 5777 5775 5774 5777 5778 5775 
5777 5769 5778 5777 5774 5771 5779 1232 1234 
5779 5501 1232 5779 5502 5501 5780 5778 5769 
5780 5769 5502 5780 5502 5779 5780 5781 5782 
5780 5782 5778 5783 5780 5779 5783 5781 5780 
5783 5779 1234 5783 5784 5781 5785 1587 4485 
5785 5786 1587 5785 4485 4484 5787 5788 5789 
5787 5789 5786 5787 5786 5785 5790 5787 5785 
5790 5785 4484 1240 5790 4484 1240 5791 5790 
5792 5770 5773 5793 5790 5791 5794 5787 5790 
5794 5788 5787 5794 5790 5793 5795 5794 5793 
5795 5793 5792 5795 5788 5794 5795 5792 5773 
5464 225 221 224 225 5463 4487 4490 4492 
4488 5462 4491 4488 5463 5462 4488 4487 224 
4488 224 5463 5796 2334 5797 4483 5796 5797 
5798 5767 5770 5798 5770 5792 5798 5764 5767 
5799 5791 5800 5799 5793 5791 5799 5798 5792 
5799 5792 5793 4474 5801 4489 4474 5802 5801 
4470 4474 4489 4472 5764 5798 4472 5798 5799 
4472 4475 5764 4473 5799 5800 4473 4472 5799 
4473 5802 4474 4473 5800 5802 1389 4468 857 
5803 857 4468 5803 858 857 5803 2341 858 
5804 2341 5803 2343 2341 5804 5805 2343 5804 
2337 2343 5805 5806 5805 4477 5806 2337 5805 
5806 4479 5797 5806 5797 2334 5806 2334 2337 
5806 4477 4479 5807 557 4492 558 557 5807 
5808 5801 4478 5808 4489 5801 5808 4478 4480 
5808 4490 4489 5809 5807 4492 5809 4492 4490 
5809 5808 4480 5809 4490 5808 5810 1301 5811 
4467 5812 5810 4467 4466 5812 5813 5810 5812 
5813 1301 5810 4062 4467 5810 4062 5810 5811 
4062 628 4467 4460 5024 4459 5814 5023 2053 
4458 4459 5023 4458 5023 5814 5815 4897 4899 
5815 5816 4897 5817 2050 5024 5817 5024 4460 
1260 2050 5817 414 5817 4460 412 414 4460 
415 4462 5818 415 5818 413 415 413 412 
4457 416 412 955 5437 5434 4454 1048 3670 
4454 960 1048 5819 5442 5440 4455 5819 5440 
4455 5440 4456 5820 5817 414 5820 1260 5817 
5821 5820 414 5821 414 413 1257 1260 5820 
5822 4899 5578 5822 4462 5815 5822 5818 4462 
5822 5815 4899 5823 5578 5580 5823 5818 5822 
5823 5822 5578 5824 5825 5826 5827 5824 5826 
5827 5826 5828 5829 5830 5831 5829 5824 5830 
5829 5825 5824 5832 5825 5829 5833 5829 5831 
5833 5832 5829 5833 498 5832 5834 5826 5825 
5835 5828 5826 5835 5826 5834 5835 5834 5836 
4445 5836 1277 4445 5835 5836 5837 5836 5834 
5838 5839 5837 5838 5825 5832 5838 5834 5825 
5838 5837 5834 5840 5839 5838 5840 5838 5832 
5840 5832 498 5841 5828 5842 5841 5827 5828 
5841 490 5827 491 490 5841 1264 5841 5842 
1264 491 5841 5843 5831 5830 5844 5843 5830 
493 5843 5844 493 5845 5843 4448 1267 1263 
1276 4445 1277 1262 1264 5842 4444 5828 5835 
4444 1262 5842 4444 5842 5828 4444 5835 4445 
4443 1263 1262 132 5033 133 131 4226 132 
4441 4215 4232 5846 4215 4441 3992 5846 4441 
418 3992 4441 418 419 3992 5847 133 5033 
417 134 5848 5848 1271 4 5848 5847 1271 
5848 133 5847 5848 134 133 417 419 418 
4 3 417 4 417 5848 4437 5837 5839 
4437 5839 1270 4437 1270 1269 4438 421 1277 
4438 1277 5836 4438 5836 5837 4438 5837 4437 
1274 424 5849 5850 4418 5851 5852 1274 5849 
5853 5850 5852 5853 5499 5498 5853 5849 5499 
5853 5852 5849 5853 4418 5850 5853 5498 4418 
4434 4443 4436 1275 4436 1276 4435 1274 5852 
4435 1275 1274 420 424 421 4439 1271 5847 
4439 1269 1271 5854 4439 5847 5854 5847 5033 
5854 5033 5032 423 5849 424 423 5499 5849 
423 5032 5499 5854 423 420 5854 420 4439 
423 5854 5032 5042 5044 5855 5856 5042 5855 
4192 1281 5856 4192 5856 5855 4425 5852 5850 
4425 4435 5852 4425 5851 4423 4425 5850 5851 
4427 4435 4425 4424 4423 5038 5039 5037 5041 
4421 5851 4418 4419 5498 5030 4419 4418 5498 
4417 4419 5030 5857 4421 4420 5858 4423 5851 
5858 5038 4423 5858 5851 4421 5858 4421 5857 
4450 5859 4451 5860 5859 4450 5861 5862 5859 
5861 5859 5860 4426 4433 4427 4426 4424 5039 
5863 4433 4426 4447 4434 4433 4447 4433 5863 
5864 5863 4426 5864 5039 5041 5864 4426 5039 
5865 5864 5041 5865 5041 5043 5865 5863 5864 
5866 5860 4450 5867 4447 5863 5867 5863 5865 
5867 5865 5868 5867 5868 5866 4452 5867 5866 
4452 4448 4447 4452 4447 5867 4452 5866 4450 
4301 4411 4302 4407 4405 4412 4407 4412 5869 
4404 4411 4405 4401 5046 5870 4401 4399 5046 
5871 5870 4397 5871 4401 5870 5872 5870 5046 
5872 5046 5045 5873 5872 5045 5873 5045 5047 
4390 5872 5873 4389 5872 4390 4389 4397 5870 
4389 5870 5872 4388 4391 4394 4388 4397 4389 
4402 4401 5871 5874 4402 5871 5875 5820 5821 
5876 5874 5875 5876 5875 5821 4396 5875 5874 
4396 5874 5871 4396 5871 4397 4395 5875 4396 
4395 1257 5820 4395 5820 5875 4318 129 445 
128 4381 129 5877 5878 4382 127 4382 128 
127 5877 4382 4406 4352 4350 4414 127 126 
4414 4404 4406 5879 127 4414 5879 5877 127 
5879 4414 4406 5879 4406 4350 5880 5878 5877 
5880 5877 5879 5880 5879 4350 4375 245 248 
5881 5874 5876 5881 4400 4402 5881 4402 5874 
4376 5567 4379 4376 4375 4400 5882 5881 5876 
5882 5823 5580 5883 5049 246 4378 5883 246 
4378 246 245 1289 5049 5883 1289 1288 5049 
2759 5884 5572 2759 5572 2760 5885 5571 5572 
5885 5569 5571 4377 4379 5569 4377 5569 5885 
5886 4378 4377 5886 4377 5885 5886 5883 4378 
5887 5882 5580 5887 5881 5882 5887 5580 5567 
5887 5567 4376 5887 4376 4400 5887 4400 5881 
4373 5885 5572 4373 5572 5884 4372 1289 5883 
4372 5883 5886 4372 5886 5885 4372 5885 4373 
1285 4369 1286 1285 1289 4372 4370 5388 4371 
4370 4373 5884 5888 5497 5050 5026 4391 4392 
4383 4382 5878 5889 4383 5878 4365 5873 5047 
4364 5890 5891 4366 149 148 4366 5047 149 
4366 4365 5047 4367 4366 148 4363 5890 4364 
4363 5889 5890 4363 4367 4383 4363 4383 5889 
4358 5873 4365 4358 4390 5873 4357 4390 4358 
4359 4358 4365 4361 4392 4357 4360 4364 5891 
4360 4359 4364 1258 4394 5027 1258 5892 1256 
1258 5027 5892 5893 1076 5496 5495 5893 5496 
5890 5894 5891 5895 5890 5889 1075 5894 5890 
1074 1076 5893 1075 5895 5896 1075 5890 5895 
1075 5896 1076 1075 1074 5894 4340 4339 1072 
5897 503 506 4340 5897 4339 4347 5897 4340 
4347 503 5897 4347 4111 503 5898 4408 4407 
5898 4407 5869 5898 5869 4109 5898 4109 4111 
4345 4352 4408 4351 1076 5896 4351 4343 1076 
4351 4344 4343 1297 1301 5813 1287 1286 5386 
5899 5900 1287 5899 1287 5386 5901 5888 5900 
5902 5903 5901 5904 5900 5899 5904 5902 5901 
5904 5899 5905 5904 5901 5900 4320 5903 5902 
5906 5395 5393 5907 5394 5395 5907 5396 5394 
5907 5395 5906 5908 5907 5906 5909 5907 5908 
5909 5899 5386 5909 5905 5899 5909 5908 5905 
5909 5396 5907 5909 5386 5396 5910 5906 5393 
5910 5911 436 5912 5908 5906 5912 5906 5910 
5912 5910 436 4297 443 4295 124 443 4297 
430 439 5913 431 430 5913 5913 435 4334 
440 123 431 440 431 5913 124 123 440 
441 443 124 440 5913 4334 4331 442 441 
1095 5264 1092 5914 5264 1095 4333 4336 442 
4333 5914 4336 5915 5914 1095 5915 4337 4336 
5915 4336 5914 435 437 4334 437 436 5911 
5916 437 5911 4332 437 5916 4332 4334 437 
5917 4333 4332 5917 5914 4333 5917 5916 5263 
5917 4332 5916 5917 5263 5264 5917 5264 5914 
4330 431 123 4330 432 431 4328 4327 434 
1042 1041 5494 4313 1042 5494 4313 4315 1042 
427 5888 5901 427 5497 5888 427 5901 5903 
4321 5903 4320 446 445 447 446 243 426 
425 427 5903 426 243 5497 426 5497 427 
429 426 425 4321 428 425 428 4321 4315 
428 4316 429 4321 425 5903 4306 4307 4310 
4235 4237 4301 4238 448 5918 450 4308 5918 
450 454 4308 448 450 5918 4298 449 4235 
4293 4328 4290 4317 4319 4316 5919 5493 4325 
5920 5493 5919 5921 5922 4303 4415 126 4385 
4415 4385 5921 4415 4303 4302 4415 5921 4303 
4304 4303 5922 5923 4304 5922 4299 4304 5923 
4299 4298 4304 453 457 454 5924 4299 5923 
5924 5920 5919 5924 5923 5920 4386 5921 4385 
4386 4319 4317 4278 4229 4228 4227 4280 4228 
5925 5926 5927 5928 5925 5927 5928 5929 5925 
5930 5925 5929 5931 5925 5930 5931 5926 5925 
4217 4216 5932 5933 4217 5932 4233 4217 5933 
5934 5935 5936 5934 5937 5935 5938 5930 5929 
5938 5934 5933 5938 5929 5937 5938 5937 5934 
5938 5933 5932 5938 5932 5930 5939 5940 5941 
5939 5941 5942 5943 5939 5942 5944 465 5945 
5946 5944 5945 5947 5943 4178 5947 4279 5948 
5949 5935 5944 5949 5944 5946 5949 5936 5935 
5950 5949 5946 5951 5949 5950 5951 5936 5949 
4281 5950 5948 4281 5948 4279 4281 4280 5951 
4281 5951 5950 4269 4311 4271 5952 5928 5927 
5953 5952 5927 4204 4203 4270 4266 4288 4267 
1031 5940 4276 4261 1031 4276 464 4275 5945 
464 4259 4275 464 5945 465 4252 4255 4283 
5954 5955 4165 462 4165 5955 4296 4295 4338 
4296 4264 4267 5956 4264 4296 5956 4296 4338 
5957 5956 4338 5957 4338 4337 5958 462 5955 
5958 4264 5956 5958 4265 4264 5958 5955 4265 
459 5956 5957 459 5958 5956 459 458 462 
459 462 5958 1094 5915 1095 5959 5915 1094 
5959 5957 4337 5959 4337 5915 4152 5959 1094 
460 459 5957 460 5957 5959 460 4152 4153 
458 460 4153 460 5959 4152 4246 4249 4306 
4248 5918 4308 4248 4308 4249 5960 4310 4307 
5961 4310 5960 5961 4311 4310 5962 4271 4311 
5962 5963 4271 5962 4311 5961 4243 4250 4240 
4243 5737 4250 4242 4203 4205 4241 4269 4242 
4241 4240 4246 5964 5962 5961 5965 5964 5961 
5965 5961 5960 5966 5964 5965 5967 5964 5966 
4285 5967 5966 4291 4285 5966 4291 4286 4285 
5968 5969 5970 467 5969 5968 4257 464 463 
4258 467 5968 4256 4258 5968 4256 4253 4258 
5971 5970 5969 5971 5952 5953 5971 5969 5952 
5972 5970 5971 5973 5971 5953 5973 5972 5971 
4272 4271 5963 4272 5973 4270 4272 5963 5972 
4272 5972 5973 5974 4307 457 5974 5960 4307 
456 5924 5919 5924 456 453 5924 453 4299 
456 5974 457 4225 131 4231 4225 4234 4227 
4223 5926 5931 4218 5846 5975 4218 4215 5846 
4214 4232 4215 4214 4217 4233 470 4220 4216 
4210 4223 4212 4210 5926 4223 4207 4244 4205 
4200 5038 5858 4200 5858 5857 4199 5038 4200 
4199 4198 5036 1282 1281 4192 4193 4192 5855 
5976 5057 5060 5977 4193 5855 5977 5036 4198 
5977 5855 5044 5977 5044 5036 5978 4193 5977 
5978 5977 4198 5063 5492 5979 5063 5062 5492 
4188 5491 5980 4187 5980 5981 4187 4188 5980 
4183 5979 5492 4184 5492 5491 4184 5491 4188 
4184 4183 5492 4185 4184 4188 5066 5053 5056 
4177 5942 5056 4177 5943 5942 4177 4178 5943 
4175 4177 5056 4176 4175 5057 4176 5057 5976 
5982 5066 5056 5982 5942 5941 5982 5056 5942 
4181 4185 4190 5983 4181 4190 1279 4431 1280 
4195 1279 1282 4173 4181 5983 4173 4172 4181 
5984 1279 4195 5985 4194 5979 5985 4195 4194 
5985 5984 4195 5985 5979 4183 4168 5067 4166 
1030 5941 5940 1030 5940 1031 5986 5066 5982 
5986 5982 5941 5986 5941 1030 4167 5954 4165 
5065 4167 4166 5065 5066 5986 4201 4200 5857 
5987 4176 5976 5987 1037 4201 4179 4176 5987 
4158 5947 4178 4158 4279 5947 4159 4158 4178 
4163 4279 4158 4160 4420 4161 4160 4159 4179 
4162 4161 4417 4162 4278 4163 5988 4420 4160 
5988 5987 4201 5988 4160 4179 5988 4179 5987 
5988 5857 4420 5988 4201 5857 5989 4190 4189 
5989 5983 4190 4155 4154 4189 4156 4155 4187 
4156 4187 5981 5990 4156 5981 5990 5981 5071 
479 5990 5071 475 5990 479 5990 474 4156 
1318 461 458 461 4165 462 1318 458 4153 
5991 475 478 5991 1316 5992 5991 478 1316 
5993 5992 5382 5993 5382 775 1093 1091 4151 
1093 4152 1094 4150 5992 1316 4150 5382 5992 
4150 4151 5382 1315 4150 1316 1315 1318 4153 
476 768 767 4147 5992 5993 4147 5991 5992 
5990 475 474 473 476 474 473 475 5991 
473 5991 4147 770 4154 767 5994 4189 4154 
5994 5989 4189 5994 770 5995 5994 4154 770 
5996 5782 5997 5998 5778 5782 5998 5775 5778 
5998 5782 5996 5999 5776 5775 5999 5775 5998 
6000 5996 6001 6002 5998 5996 6002 5999 5998 
6002 5996 6000 6003 5999 6002 6003 6002 6000 
6004 5776 5999 6004 5999 6003 5781 5997 5782 
6005 5781 5784 6005 5997 5781 3895 482 6006 
6007 5783 1234 6007 5784 5783 6008 1131 3883 
6008 6009 1131 4142 6009 6008 4142 4143 6009 
6010 4145 4144 6010 4144 6011 6012 6008 3883 
6012 3884 6013 6012 3883 3884 4136 6014 6015 
4140 6012 6013 4140 6013 3871 4140 3871 3870 
4137 6011 4144 4137 4136 6015 4137 6015 6011 
4138 4137 4144 4139 4138 4142 4139 4142 6008 
4139 6012 4140 4139 6008 6012 1237 6007 1234 
5074 1237 1236 6016 5784 6007 6017 1237 5074 
6017 6007 1237 6017 6016 6007 482 484 6006 
483 6016 6017 6018 6017 5074 6018 483 6017 
6018 238 484 6018 484 483 6018 1135 238 
6018 5074 1135 6019 4133 6005 6019 6005 5784 
6019 5784 6016 485 483 482 3895 486 482 
485 4133 6019 485 486 4133 485 6016 483 
485 6019 6016 6020 5996 5997 6020 6001 5996 
6020 5997 6005 4132 6020 6005 4132 6005 4133 
1266 491 1264 6021 490 487 494 493 5844 
6022 493 492 495 492 494 495 494 1321 
492 496 4125 496 495 1319 6021 1321 494 
6021 487 1321 6021 494 5844 6023 490 6021 
6023 6021 5844 6023 5824 5827 6023 5827 490 
6023 5830 5824 6023 5844 5830 6024 5076 6025 
6024 6025 6026 4124 4125 496 6027 6028 6029 
6027 6029 6030 6031 6026 6025 6031 6027 6030 
6031 6030 6026 6022 5845 493 6022 6032 5845 
6022 492 4125 4126 6032 6022 4126 6022 4125 
6033 6029 6028 6033 6028 6032 6033 6032 4126 
6033 4126 4123 6034 5833 5831 6035 6034 5831 
6035 5843 5845 6035 5831 5843 6036 5845 6032 
6036 6032 6028 6036 6035 5845 6037 6035 6036 
6037 6034 6035 6038 6037 6036 6038 6028 6027 
6038 6036 6028 6039 6027 6031 6039 6038 6027 
6040 6031 6025 6040 6039 6031 6041 6038 6039 
6041 6037 6038 6042 6040 6025 6042 6025 5076 
6043 6040 6042 6044 6039 6040 6044 6041 6039 
6044 6040 6043 6045 6044 6043 6046 5833 6034 
6046 499 498 6046 498 5833 6047 6048 499 
6047 6049 6048 6047 499 6046 6050 6034 6037 
6050 6037 6041 6050 6047 6046 6050 6046 6034 
6051 6047 6050 6051 6050 6041 6051 6041 6044 
6051 6049 6047 6051 6045 6049 6051 6044 6045 
500 499 6048 4121 1270 5839 4121 1272 1270 
5840 498 497 5840 497 4121 4121 5839 5840 
497 499 500 6052 5789 5788 6053 5788 5795 
6053 5795 5773 6053 6052 5788 6054 5772 5774 
6053 5772 6054 6053 5773 5772 6055 6056 6052 
6055 6052 6053 6055 6053 6054 6057 6056 6055 
6058 6054 5774 6058 5774 5776 6059 5776 6004 
6059 6058 5776 6060 6058 6059 6061 6057 6055 
6061 6058 6060 6061 6062 6057 6061 6060 6062 
6061 6055 6054 6061 6054 6058 6063 5737 4566 
6063 4247 4250 6063 6064 4247 6063 4250 5737 
4569 6064 6063 4569 6063 4566 4569 4595 6064 
4569 4568 4595 6065 6064 4595 4594 6065 4595 
4583 4594 4584 6066 4238 6065 6066 6067 452 
6066 452 4238 6066 6065 4594 6066 4594 4583 
6066 4583 6067 6068 4586 6069 6068 6069 4576 
4120 6068 4576 4120 4576 4117 4114 1064 4586 
4114 4586 6068 4112 4110 4115 502 506 503 
4097 4101 4092 6070 4701 5678 6070 4703 4701 
6071 4703 6070 4691 4690 4703 4691 4703 6071 
4094 4096 4691 4094 4691 6071 4095 4099 4097 
6072 6070 5678 6072 5678 1357 6073 6072 6074 
6073 6071 6070 6073 6070 6072 4090 6075 6076 
6077 5753 4521 6077 4554 5753 4085 4554 6077 
4085 4084 4554 6078 4521 4520 6078 6077 4521 
6079 6078 4520 1294 6080 4354 4079 4354 6080 
4079 4076 4354 4078 6079 6081 4078 6081 4080 
4087 6082 6083 4087 4086 6082 4087 6083 4119 
6084 502 4112 6084 505 502 6085 6080 1294 
6085 6086 6080 1293 506 505 1293 505 6085 
1293 6085 1294 6087 6083 6082 6087 6085 505 
6087 6082 6086 6087 6086 6085 6087 505 6084 
6087 6084 6083 4064 4068 4072 4067 6079 4520 
4067 6081 6079 4067 4520 4068 1300 1299 4080 
1300 5811 1301 4060 4062 5811 6088 5811 1300 
6088 1300 4080 6088 4080 6081 6088 4060 5811 
4066 4061 4060 4066 6088 6081 4066 6081 4067 
4066 4060 6088 6089 4527 4526 4106 4101 4100 
6090 4092 4101 6090 4101 4106 6090 4106 6089 
6090 6089 4526 6091 4527 6089 4105 6091 6089 
4105 6089 4106 4073 4522 6091 4073 4072 4522 
4073 4105 4074 4073 6091 4105 4107 6092 6093 
4102 6092 4107 4102 4107 4100 4108 4107 6093 
4108 6093 6094 4071 4074 4108 4071 4108 6094 
6095 6094 1486 6095 4071 6094 4055 6096 4030 
4055 4056 6097 4055 6097 6096 4027 4055 4030 
6098 6097 4056 6099 6098 4056 4057 6099 4056 
6100 6099 4057 3898 6099 6100 6101 3898 6100 
6102 512 4045 4046 6100 4057 4047 4054 4048 
4047 4046 4057 4044 6102 4045 4044 4048 509 
4040 6100 4046 4040 6101 6100 4042 4040 4046 
4039 6101 4040 514 4042 4045 512 514 4045 
4041 514 513 4038 4041 4052 6103 6104 6105 
4023 6103 4677 4023 6104 6103 6106 6103 6105 
4036 516 6105 4036 6105 6104 515 513 512 
6102 516 512 515 516 4036 4025 6104 4023 
4025 4036 6104 4033 513 515 4033 4034 4050 
6107 6102 4044 6107 4044 509 6108 6107 509 
6109 6105 516 6109 6106 6105 6109 516 6102 
6109 6102 6107 6110 6109 6107 6110 6107 6108 
6110 6106 6109 4031 5660 4723 4031 4723 4028 
6111 6112 6113 6111 6113 6114 6115 1345 6116 
6115 6116 6113 6115 6113 6112 6117 6115 6112 
6118 6062 6060 6118 6060 6059 6119 6117 6112 
6120 6118 6119 6120 6062 6118 6120 6119 6112 
6120 6112 6111 4020 4023 4677 4021 4020 4672 
6121 6001 6122 6121 6000 6001 4024 6123 6124 
4024 4035 4025 4024 6124 4035 6125 6115 6117 
6125 6117 6126 6125 1345 6115 6127 6125 6126 
4675 4674 5695 4675 5695 6127 6128 4675 6127 
6128 6126 6129 6128 6127 6126 6130 6128 6129 
4022 6123 4024 4022 6130 6123 4671 6128 6130 
4671 6130 4022 4671 4022 4021 4671 4675 6128 
6131 6126 6117 6131 6129 6126 6132 6059 6004 
6132 6004 6003 6132 6118 6059 6133 6119 6118 
6133 6131 6117 6133 6117 6119 6133 6118 6132 
6134 6133 6132 6134 6131 6133 6135 6130 6129 
6135 6123 6130 6135 6124 6123 6135 6129 6131 
6135 6131 6134 6136 6003 6000 6136 6132 6003 
6136 6134 6132 6137 6135 6134 6137 6134 6136 
6137 6136 6000 6137 6000 6121 6137 6124 6135 
6138 6137 6121 6138 6124 6137 6138 4035 6124 
6138 4034 4035 6138 4050 4034 6139 4051 4050 
6139 4050 6138 6139 6138 6121 6139 6121 6122 
6140 5683 5681 6140 6106 6110 6141 5687 5685 
6141 5685 5683 6141 5683 6140 6141 6110 6108 
6141 6108 5687 6141 6140 6110 4607 4606 4626 
4016 4206 4017 4018 4015 5701 4018 4207 4016 
4010 4212 4011 4009 4012 4014 4009 4017 4010 
4006 4005 4219 4008 364 361 364 4011 4005 
4007 366 368 4007 368 5710 3997 500 6048 
3997 3998 500 3991 4000 5975 3991 5846 3992 
3991 5975 5846 3991 1025 4000 3993 419 3 
3996 1 3998 3994 519 518 2 1 3996 
2 3996 521 2 3993 3 2 521 3993 
3987 1027 6142 3988 1027 3987 369 367 3999 
369 3999 3988 368 370 5710 369 368 367 
533 5717 377 533 1325 4621 533 4621 5717 
6143 3987 6142 6144 3983 5706 3982 3983 6144 
3986 6144 5706 3986 5706 3985 3986 6143 6144 
3986 3987 6143 3980 6142 4003 3980 6143 6142 
3979 3982 6144 3979 6144 6143 3979 6143 3980 
3981 3980 4003 6145 6043 6042 6146 6043 6145 
6146 6045 6043 526 523 522 3975 523 526 
3977 3982 3979 532 531 533 6147 6146 6145 
6148 6149 6147 4002 519 3995 6150 6049 6045 
6150 6045 6146 6151 6147 6149 6151 6149 6152 
6151 6150 6146 6151 6146 6147 6153 4002 3995 
6153 6152 4002 6153 6151 6152 6153 6150 6151 
6154 3997 6048 6154 3995 3997 6154 6153 3995 
6154 6049 6150 6154 6048 6049 6154 6150 6153 
1324 3974 1325 3971 4626 3972 527 529 3976 
529 528 6155 6156 529 6155 6157 529 6156 
6157 3976 529 1323 6157 3973 1323 3976 6157 
1323 3973 1324 1323 531 3976 6158 6157 6156 
6158 3973 6157 6158 3970 3973 6159 3970 6158 
6160 6159 6158 6160 6158 6156 3966 6160 3967 
3966 6159 6160 6161 6145 6042 6161 6042 5076 
3964 3967 3962 3961 3960 5078 6162 528 6148 
6162 6155 528 6163 6155 6162 3963 3962 6163 
6164 6147 6145 6164 6145 6161 6164 6162 6148 
6164 6148 6147 6165 3963 6163 6165 6162 6164 
6165 6163 6162 6165 6164 6161 5079 6161 5076 
5079 3963 6165 5079 3960 3963 5079 6165 6161 
6166 6167 4605 4608 6168 6166 4608 4607 6169 
4608 6169 6168 4608 6166 4605 536 6159 3966 
534 536 3968 3968 536 3966 3095 534 3968 
537 535 534 537 538 6168 537 6168 6169 
537 6169 535 3095 538 534 6170 1332 6171 
3954 6171 1332 6172 6114 6113 6173 6062 6120 
6174 6170 6171 6175 6176 6170 6175 6177 6176 
6175 6170 6174 6173 6120 6111 6178 6175 6174 
6179 4616 5733 6179 4615 4616 6180 3957 3958 
6180 3958 6181 6182 3957 6180 6182 4615 6179 
6183 4602 6167 4603 6183 6184 4603 4602 6183 
3950 3956 6185 3950 3946 3956 3941 6176 6177 
3941 6186 6176 3941 6177 3942 3944 6186 3941 
3944 6181 6186 6187 6113 6116 6187 6172 6113 
3943 3942 6172 3943 6172 6187 6188 3940 3943 
6188 3943 6187 6189 4763 5647 6189 3940 6188 
3938 6181 3944 3938 6180 6181 3936 4615 6182 
3936 6182 6180 3936 6180 3938 3935 3934 4614 
3935 4615 3936 3937 3938 3944 3933 5647 3934 
3933 6189 5647 3933 3940 6189 3933 3937 3940 
6190 6006 484 6190 484 238 6190 6191 6006 
6190 6192 6191 119 6191 6192 3927 3926 4145 
235 1131 6009 6193 235 6009 6193 6009 4143 
237 235 6193 236 238 1135 237 236 235 
237 6190 238 237 6192 6190 237 6193 6192 
3925 6193 4143 3925 4143 3926 3925 119 6192 
3925 6192 6193 3930 3928 3927 3930 6194 3931 
6195 4145 6010 6195 3927 4145 6195 3930 3927 
6195 6194 3930 3919 3918 3923 6196 3923 3922 
6197 6196 3922 6197 6194 6196 6197 3931 6194 
6198 6015 6014 3867 3920 6199 3867 3866 3920 
6200 3919 3923 6200 3923 6196 6201 3920 3919 
6201 3919 6200 6201 6199 3920 6202 6201 6200 
6202 6010 6011 6203 6011 6015 6203 6201 6202 
6203 6202 6011 6203 6199 6201 6203 6198 6199 
6203 6015 6198 3915 1349 1348 3914 6197 3922 
3914 3922 3915 1353 1352 3910 540 1348 1353 
3912 3911 4732 3912 4732 5674 1351 3909 1352 
3903 3918 3904 1350 1349 3903 1374 3904 1375 
3901 1351 1350 3901 3902 3908 6204 6098 1021 
6204 6097 6098 6205 6197 3914 6205 3931 6197 
6206 6204 1021 6207 6206 1021 3916 6206 6207 
3916 6207 6205 3916 6205 3914 3896 3898 6101 
1022 6098 6099 1022 1021 6098 1022 6099 3898 
6208 4052 4051 6209 4039 4038 6210 6209 4038 
6210 4052 6208 6210 4038 4052 6210 6208 4134 
3893 6006 6191 3893 3895 6006 3894 486 3895 
3892 116 6209 3892 6209 6210 3892 6210 4134 
3892 4134 3894 6211 6101 4039 6211 4039 6209 
6211 3896 6101 6211 6209 116 115 3896 6211 
115 6211 116 3897 114 118 3897 115 114 
3897 3896 115 3897 118 1020 113 6191 119 
113 3893 6191 6212 6097 6204 6212 6096 6097 
6213 6096 6212 6213 5674 5671 6214 5671 5660 
6214 6213 5671 6214 5660 4031 6214 6096 6213 
6214 4031 4030 6214 4030 6096 508 5687 6108 
508 5658 5687 508 6108 509 507 509 4048 
511 4054 4027 4054 507 4048 510 508 507 
4054 511 507 510 5659 5658 510 5658 508 
510 4029 5659 510 511 4029 543 6204 6206 
543 6212 6204 6215 3912 5674 6215 5674 6213 
6215 539 3912 6215 6213 6212 6215 6212 543 
542 540 539 542 6206 3916 542 543 6206 
6215 543 539 6216 6217 6218 6216 6218 3554 
4730 4737 4728 1355 1358 4737 6219 1355 4737 
6219 4737 4730 6220 6217 6216 3906 4729 3907 
6221 4729 3906 6222 3908 3902 6223 6221 3906 
6223 3908 6222 6223 3906 3908 6224 6223 6222 
6225 6224 6222 6226 1355 6219 6226 6219 6220 
6227 6226 6220 6227 6220 6216 1356 1355 6226 
6228 6226 6227 6228 1356 6226 3887 1356 6228 
1360 1356 3887 3890 6074 6072 3889 6074 3890 
3889 4088 6074 6229 5096 5084 6230 5085 5093 
6231 3871 6013 3880 6230 5093 3880 5093 3879 
3875 3871 6231 3875 6230 3880 3875 3880 3872 
3875 6231 6230 3874 6014 4136 3874 4136 3870 
6232 6014 3874 3873 6232 3874 6233 6232 3873 
3878 6233 3873 3878 3873 3872 1377 6225 6222 
1377 6222 3902 1377 3902 1374 6234 3849 231 
6235 5475 5110 6235 5108 6236 6235 5110 5108 
3743 6235 6236 6237 6236 5108 6237 5108 5107 
6238 6236 6237 1386 5095 1387 3864 3849 6234 
548 6239 3861 545 548 3861 545 544 548 
3859 5113 6239 3859 3858 5113 3853 3852 3857 
6240 547 544 3854 3859 6239 3854 3853 3859 
3854 548 547 3854 6239 548 6241 3861 6239 
6241 3862 3861 6241 5113 5112 6241 6239 5113 
6242 6236 6238 6242 3743 6236 6243 6238 6244 
6243 6244 1382 6243 6242 6238 6245 5465 5122 
6245 6242 6243 3741 6245 5122 3741 6242 6245 
3741 5122 3742 3741 3743 6242 1381 6243 1382 
1381 7 5465 1381 5465 6245 1381 6245 6243 
9 5112 6 9 6241 5112 9 3862 6241 
3850 3849 3864 8 3862 9 8 3850 3862 
3848 232 229 2317 154 552 2317 151 154 
2317 2318 151 3846 3845 5210 193 3857 3852 
677 676 3847 677 3847 193 677 193 3852 
677 3852 675 4471 4470 4491 6246 1226 5763 
6246 5763 4475 6246 4475 4471 1230 5126 1228 
1230 1226 6246 6247 4491 5462 6247 1230 6246 
6247 5126 1230 6247 5462 5126 6247 4471 4491 
6247 6246 4471 223 557 555 223 555 3844 
110 109 1386 108 6248 6249 108 6249 109 
108 6250 6248 3837 6250 108 111 110 1384 
3843 561 6251 6252 3843 6251 6253 3839 1129 
6253 3840 3839 6254 3843 6252 6254 3842 3843 
6254 5464 3842 6254 6252 6253 6254 1129 5464 
6254 6253 1129 6251 560 563 3835 6253 6252 
3835 6252 6251 3835 6251 563 3832 6255 6234 
3832 563 6255 3832 6234 231 3833 231 230 
3833 3832 231 6256 6257 6229 6258 6256 6259 
6258 6257 6256 5073 3830 6260 1133 1132 5073 
1133 5073 6260 6261 6262 3885 3882 6261 3885 
3882 1133 6260 3882 6260 6261 6263 6261 6260 
6263 6260 3830 6264 6263 6265 6264 6261 6263 
6264 6262 6261 6264 6259 6256 6264 6265 6259 
6264 6256 6262 6266 6259 6265 6267 6258 6259 
6267 6259 6266 6268 3825 5461 6268 6267 6266 
1235 1233 3827 3829 6265 6263 3829 6263 3830 
3828 1236 1235 3828 3830 5073 3822 3827 3824 
1229 3824 1227 3821 6268 6266 3821 3825 6268 
3823 1229 1228 3823 5125 3825 6269 3822 3821 
6269 3821 6266 6269 3829 3822 6269 6265 3829 
6269 6266 6265 6270 6258 6267 5129 1385 6270 
5129 1384 1385 6271 5129 6270 6271 6268 5461 
6271 6270 6267 6271 6267 6268 6271 5461 5128 
6271 5128 5129 6257 5096 6229 6272 6270 1385 
6272 6258 6270 6272 6257 6258 1388 6257 6272 
1388 5096 6257 1388 1387 5096 1388 6272 1385 
6251 561 560 559 561 3844 6273 559 3844 
555 558 556 555 6273 3844 6273 555 553 
6273 553 1390 546 545 3863 544 546 1391 
565 1391 546 6274 6234 6255 6274 3864 6234 
6274 3863 3864 564 546 6274 6274 546 3863 
6274 6255 562 562 6255 563 562 560 559 
566 565 564 566 1390 565 566 6273 1390 
6274 562 564 566 562 559 566 559 6273 
6240 544 1391 411 6240 1391 6240 567 3855 
3855 547 6240 569 675 3855 567 569 3855 
6240 411 567 6275 410 407 410 568 567 
3812 5404 3810 6276 5404 3812 6276 2497 6277 
2510 5404 6276 2510 2511 5404 2510 6276 6277 
2510 6277 2508 3466 5402 3465 3466 5401 5402 
6278 5401 3466 3814 3811 3818 3289 6279 6280 
1406 3289 6280 3290 6281 6279 3290 6279 3289 
6282 3808 6281 3804 6280 6279 3805 6281 3808 
3805 6279 6281 3805 3804 6279 3803 3805 3808 
6283 1146 1145 6283 5510 1146 6283 3806 5510 
6283 3807 3806 6283 1145 6284 6283 6284 3807 
3801 6284 6285 3801 3803 3807 3801 3807 6284 
3802 3801 6285 3793 5469 3794 3793 6286 5469 
3793 6287 6286 3792 6288 3795 6289 5470 5473 
6289 5471 5470 3791 6288 3792 3791 3794 5471 
6290 6288 3791 6290 3791 5471 6290 5471 6289 
3798 3795 6288 3798 6288 6290 3781 3784 5477 
3783 3781 6287 3783 6287 3793 580 582 3782 
3777 3776 5481 3778 5479 5476 3778 3777 5479 
3779 3782 582 3779 3778 3784 3780 3779 582 
3780 582 581 3780 3789 3776 3787 6291 3788 
5003 5002 6292 3772 3771 6292 6293 6292 3771 
6293 3747 3749 6294 6293 3749 6294 5003 6292 
6294 6292 6293 6295 6296 5004 6295 5004 5003 
6295 5003 6294 6295 6294 3749 6297 3772 6292 
6297 6291 3787 6297 5002 6291 6297 6292 5002 
6298 6297 3787 6298 3787 581 6298 581 3773 
6298 3773 3772 6298 3772 6297 3785 580 3782 
3785 3792 584 3785 3782 3783 576 575 579 
6299 6300 1399 6299 1399 3747 6299 3747 6293 
3774 6300 6299 3774 3770 6300 3774 587 3770 
3774 6293 3771 3774 6299 6293 6301 5136 6300 
6301 3770 3769 6301 6300 3770 6302 6303 1123 
6302 5136 6301 6302 5137 5136 6302 1123 5137 
6304 6302 6301 6304 6303 6302 6304 6301 3769 
3768 576 579 3768 579 6305 3768 6305 6304 
3768 6304 3769 578 6306 6305 578 3797 6306 
3796 578 575 578 6305 579 6307 6305 6306 
6307 6304 6305 6307 6303 6304 6308 6290 6289 
6308 3798 6290 3799 6308 6309 3799 6309 6310 
3799 3798 6308 3799 6310 3797 6311 5132 6312 
6313 3802 6285 3765 5617 5616 3766 260 5618 
3766 5618 5617 3766 5617 3765 1147 260 3766 
1397 3765 5616 3763 1397 1396 3763 1396 6313 
3763 6313 6285 3764 6284 1145 3764 1145 1147 
3764 3763 6285 3764 6285 6284 1393 1397 5616 
6314 1393 5616 6315 5133 1393 6315 1393 6314 
5134 5132 6311 6316 1395 5134 6316 5134 6311 
6317 1396 1395 6317 6313 1396 6317 1395 6316 
6318 1406 6280 1407 1406 6318 6319 1407 6318 
2112 1407 6319 3760 6316 6311 3761 6311 6312 
3761 3760 6311 3752 6316 3760 3752 6317 6316 
3756 3752 3760 3754 6280 3804 3754 6318 6280 
3755 3754 3804 3753 3756 3759 3753 3759 6319 
3753 6319 6318 3753 6318 3754 3751 3802 6313 
3751 3755 3802 3751 6317 3752 3751 6313 6317 
3740 5475 6235 3740 6235 3743 106 1413 103 
105 1415 106 1414 5466 1413 3744 3742 5123 
6320 3724 3744 6320 5466 1414 6320 5123 5466 
6320 3744 5123 3734 1416 1415 1417 1416 3733 
1417 3733 6321 6322 3724 6320 6322 6320 1414 
6322 1414 1417 6322 1417 6321 3731 3730 3734 
1421 1424 3730 1431 3731 1426 3728 6321 3733 
3728 3733 3727 1423 3727 1424 3719 5102 3720 
3721 3724 6322 3721 6322 6321 3722 5099 5475 
3722 5475 3740 3722 3720 5099 3723 3744 3724 
3723 3722 3740 3716 1427 1426 3717 3716 105 
48 3714 49 1428 1427 3714 3664 6323 6324 
593 6323 3664 1441 590 589 3668 593 3664 
139 138 3639 6325 139 3639 6325 6323 593 
6325 3639 3638 6325 3638 6323 592 589 591 
592 139 6325 592 136 139 592 591 136 
589 593 3668 592 6325 593 3711 5149 3712 
3651 3650 3709 3708 3656 3655 3707 3711 3708 
6326 5460 5459 6326 5459 596 6327 6326 596 
6327 596 595 6328 6327 595 6328 595 5619 
6328 5506 2267 6328 5619 5506 2270 6327 6328 
2270 6328 2267 598 5619 595 598 4809 4804 
598 4804 5619 598 597 4809 6329 5149 3711 
6329 3711 3707 6329 596 5459 6329 5459 5149 
594 598 595 594 596 6329 3707 597 594 
3707 594 6329 3704 1531 1528 3705 5295 5377 
3705 3704 5295 3705 1435 1437 3705 5377 1435 
3425 3427 3700 1434 3700 1437 3699 1434 1433 
3699 5152 3702 3701 3702 5454 5151 1433 1438 
6330 5151 1438 6331 5452 5153 6331 5153 5151 
6331 5151 6330 6332 6330 1438 3396 5454 3400 
6333 5142 5144 3697 5457 2126 3697 3398 5457 
3697 3399 3398 2125 3697 2126 3694 6332 6334 
3695 6330 6332 3695 6332 3694 3687 4972 3685 
3690 4971 3687 3686 3685 5453 3686 5452 6331 
3686 5453 5452 3689 3693 3690 3688 6331 6330 
3688 3686 6331 3688 6330 3695 3688 3695 3689 
6335 5530 4971 6335 4971 3690 6335 3690 3693 
6335 1151 5530 6336 3693 3692 6336 3692 6337 
6336 1151 6335 6336 6335 3693 6333 3380 2115 
6333 5144 3380 2119 6333 2115 3683 3661 3660 
3679 3683 3712 3680 5142 3681 3680 3679 5143 
6338 4458 5814 6338 5814 1254 6339 6338 1254 
601 4458 6338 599 601 6338 600 416 601 
603 600 599 3673 600 603 6340 5450 612 
611 612 609 6341 5163 5162 6341 5162 6342 
3665 3664 6324 3665 6324 6342 3665 5162 3667 
3665 6342 5162 3662 3661 3682 2160 2161 3659 
3657 3659 3653 3657 3656 3660 3649 3654 3648 
3649 3651 3655 1930 1926 3650 3645 6342 6324 
2170 3643 2171 3637 3641 3643 3646 6324 6323 
3646 3645 6324 3646 6323 3638 3646 3638 3637 
3635 3633 3640 3635 3639 138 3671 4455 3670 
3671 5819 4455 3677 5819 3671 3677 3671 610 
6343 5442 5819 6343 5819 3677 956 955 5434 
956 5433 5556 956 5434 5433 6344 5541 5540 
6344 5540 5555 6344 5555 5554 6344 5554 5549 
6345 5559 5543 6345 5543 5541 6345 5541 6344 
6345 5549 5548 6345 5548 5559 6345 6344 5549 
1447 5526 1448 1447 1446 5156 1447 5156 5525 
1447 5525 5526 6346 5524 5432 6346 5432 5176 
6346 5531 5524 6346 5527 5531 5174 1450 1448 
5174 6346 5176 5174 1448 5527 5174 5527 6346 
6347 6343 896 6347 5442 6343 6348 5439 5441 
6348 6349 5439 6350 2176 6348 6350 6348 5441 
6350 5442 6347 6350 5441 5442 6351 897 896 
6352 897 6351 6352 6353 897 6354 6352 6351 
6354 6351 3675 6354 3628 6355 6354 6355 6352 
6356 612 212 6356 6354 3675 6356 3628 6354 
6356 212 3628 6356 3675 609 6356 609 612 
3630 209 6357 3630 3627 209 1142 4773 1143 
6358 4773 1142 6358 5632 4773 3585 6359 6360 
3619 6360 6359 3618 3626 6361 3618 6360 3619 
3618 6361 6360 3617 3626 3618 3621 5632 6358 
3621 3620 5632 3621 3623 3617 3621 6358 3623 
6362 4769 5634 3612 6362 5634 3612 5634 3615 
3609 3615 3607 3610 3619 6359 3610 6359 6363 
3608 3613 3609 3608 6364 3613 3608 6363 6364 
3608 3610 6363 3606 3605 3620 3606 3619 3610 
6365 1370 6366 6367 3571 6368 6367 6368 6369 
3603 6233 3878 3603 6369 6233 3603 3878 3600 
3602 6367 6369 3602 6369 3603 3598 6365 6366 
3594 3572 3571 3594 3571 6367 6370 3598 6366 
3599 3598 6370 3596 6371 6372 3596 3595 6371 
3596 6372 3565 3596 3565 3567 6373 1368 5482 
6373 1370 1368 6373 5482 3588 6373 6366 1370 
6374 3589 5483 6374 5484 5479 6374 5483 5484 
6374 3559 3589 3590 6372 6371 3591 3590 6371 
3558 3589 3559 3592 6370 6366 3592 6373 3588 
3592 3591 6370 3592 6366 6373 3561 3590 3558 
3561 6372 3590 1369 1370 6365 1369 5489 911 
3601 6365 3598 3877 3879 5092 3877 3601 3600 
6375 3877 5092 6375 5092 5489 6375 5489 1369 
6375 3601 3877 6375 1369 6365 6375 6365 3601 
3586 6360 6361 3586 3585 6360 3575 6368 3571 
3575 6376 6368 3574 3573 3578 6377 6378 6379 
6377 6380 3568 6377 3568 3569 6377 6379 6380 
6381 6377 3569 6381 6378 6377 3555 3554 6218 
6382 3579 6383 6382 6383 3550 6382 3550 6384 
95 6385 6380 95 6379 96 95 6380 6379 
3549 3550 6383 3549 6383 6385 3549 6385 95 
93 96 3581 94 93 3552 6386 613 615 
3583 3582 6387 6388 3583 6387 6389 6388 613 
6390 6391 6392 6390 613 6388 6390 6387 6391 
6390 6388 6387 6390 614 613 6390 6392 614 
6393 6224 6225 6393 6384 100 6394 100 3555 
6394 3555 6218 6394 6393 100 6394 6224 6393 
6395 6223 6224 6395 6221 6223 6395 6217 6221 
6395 6218 6217 6395 6394 6218 6395 6224 6394 
6396 6382 6384 6396 6393 6225 6396 6384 6393 
3577 6382 6396 3577 3579 6382 1376 6396 6225 
1376 3577 6396 1376 1373 3577 1376 6225 1377 
6397 5451 1255 6397 5158 5451 6398 3527 5158 
6398 6399 3527 6398 5158 6397 3526 3527 6399 
3541 1470 1466 973 1466 1465 6400 3546 973 
3539 1474 6401 1472 1474 3539 3538 1469 1470 
3538 3543 3536 3533 6397 1255 1253 3533 1255 
3532 1465 1468 3532 2057 2056 1467 3534 1468 
1467 1469 3537 6402 3539 6401 6402 3537 3539 
6402 6401 6403 6404 3534 1467 6404 1467 3537 
6404 3537 6402 6405 6399 6398 6405 6404 6402 
6405 6403 6399 6405 6402 6403 6406 3534 6404 
6406 6398 6397 6406 6405 6398 6406 6404 6405 
6406 6397 3533 6406 3533 3534 204 202 3523 
203 205 5447 204 203 202 2219 205 204 
6407 6401 1474 6408 6403 6401 6408 6401 6407 
89 88 3528 6409 6408 89 6409 6403 6408 
6409 6399 6403 6409 3526 6399 6409 3528 3526 
6409 89 3528 90 89 6408 90 6410 91 
90 6408 6407 90 6407 6410 3544 6411 6412 
3544 3547 6411 3544 3541 3547 6413 3543 3542 
207 6357 209 207 209 208 6414 3543 6413 
6414 3536 3543 619 3528 88 3525 3524 5449 
3519 6414 6413 3519 6415 6414 3518 3519 6413 
3520 6415 3519 3520 6416 6415 3513 5015 5014 
3513 5014 3514 3513 3515 3518 3513 3518 5015 
6417 1016 6418 6417 3510 1016 6419 6092 6420 
6419 6093 6092 6419 6420 6417 6419 6417 6418 
6421 1486 6094 6421 6093 6419 6421 6094 6093 
6421 6419 6418 6422 6076 6075 6422 4103 4099 
6422 4099 6076 6423 6420 6092 6423 6092 4102 
6423 4102 4103 6423 4103 6422 6424 6420 6423 
6424 6423 6422 622 3508 6425 6425 3508 3510 
6425 6426 622 622 621 3508 4089 6075 4090 
6427 622 6426 6428 4089 1509 6428 6075 4089 
6429 6424 6422 6429 6427 6426 6429 6426 6424 
6429 6428 6427 6429 6422 6075 6429 6075 6428 
6430 6416 3520 6430 3520 6431 3516 6432 6433 
1483 6431 6433 3521 3516 6433 3521 6431 3520 
3521 3515 3516 3521 6433 6431 1484 1482 3507 
621 623 1493 1481 1017 1482 3505 1481 1483 
3505 1483 6433 3505 6433 6432 4059 4061 4065 
626 630 627 626 628 4059 629 632 630 
629 6095 1486 6434 629 626 3512 6432 3516 
3512 631 6432 3506 3505 6432 3506 6432 631 
631 1015 3506 4070 4065 4064 4070 4071 6095 
6434 626 4059 6434 4059 4065 6434 6095 629 
6434 4065 4070 6434 4070 6095 634 3512 3501 
634 631 3512 633 627 630 633 3504 627 
633 630 631 3502 3501 3514 3502 5012 3503 
6435 3626 3625 6435 6361 3626 6436 12 6435 
6436 6435 3625 1489 12 6436 3496 3497 617 
3493 13 1492 3488 3473 3472 1496 3488 1497 
3490 1496 623 3490 623 622 3490 622 6427 
3489 6428 1509 3489 6427 6428 3489 3490 6427 
1508 3489 1509 6437 4998 6438 6437 4997 4998 
6439 4997 6437 6440 6358 1142 6440 3623 6358 
6440 6439 3624 6440 3624 3623 884 159 5445 
885 884 5445 6441 5429 5428 6441 6442 5429 
6443 5429 6442 6444 5429 6443 6444 5427 5429 
3484 3583 6388 3484 6388 6389 3484 3483 3583 
3485 3484 6389 3482 3552 3483 6386 6389 613 
6386 615 3497 3495 6386 3497 6445 6386 3495 
6445 3485 6389 6445 6389 6386 6445 3495 6446 
3480 3482 3479 3476 6442 6441 3476 3486 6442 
3476 3479 3486 3477 3476 6441 3478 99 3480 
3494 6446 3495 3494 3493 3499 6447 6444 6443 
6447 6443 6446 6447 3494 3499 6447 6446 3494 
1503 6444 6447 1503 3499 1499 1503 6447 3499 
3556 3478 3477 6448 3556 3477 6449 6227 6216 
6449 3556 6448 6449 6216 3554 6449 3554 3556 
6450 6449 6448 6450 6227 6449 6450 6228 6227 
6451 3887 6228 6451 6228 6450 6452 6451 6450 
6452 6450 6448 3474 5426 3471 3888 1507 1506 
3888 3887 6451 6453 1507 3888 6453 6451 6452 
6453 3888 6451 6454 3474 1507 6454 1507 6453 
6454 5426 3474 6455 6453 6452 6455 6454 6453 
6455 5426 6454 6455 5428 5426 6456 5181 5423 
3468 5424 6457 3468 5425 5424 3468 6457 3469 
3459 5181 6456 3459 3462 5181 5180 3462 3461 
5184 5182 5180 6458 5180 3461 6458 5184 5180 
6459 5184 6458 6459 6458 3453 6460 6458 3461 
6460 3455 3453 6460 3453 6458 6461 3455 6460 
3460 6460 3461 3460 6461 6460 6462 6463 6464 
6465 6466 6467 6468 6469 6464 6468 6465 6467 
6468 6467 6469 6470 6471 6472 6473 3469 6457 
6473 6457 6471 6473 6470 2274 6473 6471 6470 
3442 6464 6463 3442 6468 6464 3444 3464 3441 
3440 6465 6468 3440 6468 3442 3436 3448 3437 
3436 3438 5186 3435 6472 3438 6474 5420 5417 
6475 6474 5417 6475 5417 5416 3385 3384 217 
3432 6476 3390 3432 3390 3389 1532 3428 1529 
1532 1531 3427 3426 5416 3429 3421 3450 6477 
3420 3450 3421 6478 3423 3421 6478 3421 6477 
6479 5188 3423 6479 3423 6478 1530 1529 3416 
3418 5188 6479 3418 3417 5188 3413 3420 3414 
3412 3437 3413 3411 3434 3412 3408 6480 3328 
3408 3328 3327 17 16 333 6480 329 4779 
6480 332 329 332 17 333 332 6480 3408 
635 332 3408 18 17 635 3407 636 635 
6481 2265 5509 6481 2259 2265 6481 1537 2259 
6481 5623 1537 6481 5509 5629 6481 5629 5623 
3402 3280 3279 6482 3425 3701 6482 3426 3425 
6483 5416 3426 6483 3426 6482 6483 6475 5416 
6484 5422 5420 6484 6476 5422 6484 5420 6474 
6484 3390 6476 3394 3396 3400 3395 6475 6483 
3393 6475 3395 3393 6474 6475 3391 6474 3393 
3391 6484 6474 3391 3390 6484 3388 3391 3393 
3386 3385 3389 3379 3399 3381 3376 5144 3383 
3376 3380 5144 3378 3394 3379 3377 3376 3386 
3377 3388 3378 3373 3374 6485 3364 3368 6486 
6487 3364 6486 6487 6486 1563 3370 3365 3364 
3370 3364 6487 3370 6487 6488 3370 6488 3371 
6489 6490 1102 3367 3372 6490 3367 6490 6489 
3367 3365 3372 1757 3362 1758 3359 1540 1539 
3358 1429 1428 3358 3362 3359 3356 1539 1544 
1543 3351 1541 3354 1543 1540 3352 6491 6492 
3352 6492 3353 3352 3354 3361 3352 3361 6491 
3349 6488 6487 3349 6487 1563 3348 6488 3349 
1561 3349 1563 1542 1541 3348 3347 1544 1542 
6493 1541 3351 6493 3348 1541 6493 6488 3348 
6493 3371 6488 6494 6485 3374 6494 6493 3351 
6494 3353 6485 6494 3351 3353 6494 3371 6493 
6494 3374 3371 1430 3342 1431 3343 1430 1429 
3344 3343 3356 1550 3344 1551 3339 1561 1560 
3340 1546 1551 3340 3347 3339 3338 1547 1546 
3296 3294 3338 3335 1411 1410 3336 1548 1547 
3291 3336 3292 3332 1419 1422 3333 3335 3332 
1549 1548 3333 3330 1550 1549 3331 1422 1421 
3331 3342 3330 3366 3367 6489 3366 3314 3312 
6495 3314 3366 6495 3366 6489 6495 3306 3314 
3324 5413 5412 3322 3321 3327 3311 3313 5195 
3311 3368 3312 1101 6495 6489 1101 6489 1102 
3315 5198 3313 3305 3314 3306 6496 3368 3311 
6496 6486 3368 6496 5195 5409 6496 3311 5195 
6497 5414 5198 6497 5198 3315 3309 6497 3315 
3309 3315 3305 1012 638 3302 3302 3301 5201 
3302 5413 1012 3302 5201 5413 1012 639 638 
640 638 637 574 571 570 3299 5510 3806 
3299 3806 571 3299 256 5510 6498 4779 255 
6498 6480 4779 6498 3328 6480 6498 644 3328 
6499 6498 255 6499 255 256 6499 644 6498 
642 639 643 642 644 6499 3300 637 642 
3300 256 3299 3300 6499 256 3300 642 6499 
3297 5408 5411 3297 1558 5408 641 640 645 
3303 5202 3301 3303 5410 5202 646 5410 3303 
3295 3297 5411 3295 5411 5410 6282 570 3808 
6282 573 570 645 646 3303 573 645 574 
3287 3286 3317 651 650 5407 6500 650 647 
3285 3284 650 3285 3318 3286 3281 6501 3282 
3281 3280 3405 3276 5407 1574 3276 651 5407 
3276 3277 651 3273 3274 3277 3272 6502 6503 
2453 3273 2454 3269 3268 3279 3265 3269 649 
3267 6504 3446 3267 3446 3268 3267 6505 6504 
3270 3272 6503 3270 6503 6505 3270 6505 3267 
3266 3272 3270 3266 3265 3274 653 6501 3281 
653 3281 3405 654 3404 6506 654 653 3405 
654 3405 3404 656 3318 6501 656 6501 653 
3320 654 6506 652 656 653 3320 6506 3409 
3320 3409 3321 652 654 3320 3319 655 652 
3032 6507 6508 3263 3262 3284 3260 6508 6507 
6509 6497 3309 1581 6509 6510 3307 6509 3309 
3307 6510 6509 3261 6510 6508 3261 6508 3260 
3261 1581 6510 3325 5415 1579 3325 5412 5415 
3325 3324 5412 6511 6495 1101 6511 3306 6495 
3308 6511 3031 3308 3306 6511 3308 3031 3030 
6512 6490 3372 6512 3372 3373 6513 6512 3373 
327 6512 6513 327 6513 325 4827 326 1103 
4827 6512 327 4827 1103 1102 4827 1102 6490 
4827 6490 6512 6514 6513 3373 6514 6515 6513 
6514 3373 6485 6516 6514 6485 6516 6485 3353 
6516 6492 6517 6516 3353 6492 6518 6514 6516 
6518 5615 272 6518 272 6515 6518 6516 6517 
6518 6517 5615 6518 6515 6514 670 673 6519 
6520 670 6519 6520 3255 3254 6520 3254 670 
659 670 3254 659 3254 3258 1759 50 664 
3257 663 3258 3257 664 663 6521 1759 664 
6521 664 3257 6521 3257 3256 661 663 662 
662 664 50 663 657 3258 661 662 6522 
662 665 6522 2321 6522 665 2315 6522 2321 
2319 6522 2315 2319 661 6522 658 670 659 
657 659 3258 669 673 670 5406 672 669 
5406 669 3250 3250 3252 3846 660 658 657 
663 661 657 660 3251 658 660 668 3251 
660 2319 668 660 661 2319 192 550 3857 
191 193 3847 192 191 190 192 3857 193 
674 677 675 6523 676 674 2346 569 568 
674 569 2346 6523 674 2346 5211 676 6523 
3168 3167 5596 6524 3168 5596 6525 5213 6526 
5214 6525 6524 5214 5213 6525 5214 6524 5596 
5214 5596 5215 6527 6525 6526 3242 3246 3243 
3097 3100 3242 3247 3246 6528 6529 6528 6527 
6529 6527 6526 6530 3242 3100 6530 6528 3246 
6530 3246 3242 6530 6527 6528 6531 6524 6525 
6531 6530 3100 6531 6525 6527 6531 6527 6530 
1590 6532 6533 4482 5796 4483 4482 6533 5796 
4482 1590 6533 6534 1591 1587 6534 1587 5786 
3236 1591 6534 3236 1588 1591 6535 6528 6529 
6535 3247 6528 1748 6535 6529 6536 3247 6535 
3244 3243 3249 3244 6537 3240 3232 3247 6536 
6538 6539 3238 3231 6538 3248 3231 6539 6538 
3231 3230 6539 3231 3248 3232 6540 3248 6538 
6540 3249 3248 6540 6538 3238 3237 1614 1616 
3237 6540 3238 6541 3244 3249 6541 3237 1616 
6541 6540 3237 6541 3249 6540 6541 1616 6537 
6541 6537 3244 1615 1614 3235 6542 5789 6052 
6542 6052 6056 6543 6534 5786 6543 5786 5789 
6543 5789 6542 6544 6543 6542 6545 6546 6547 
6545 6548 6546 6545 6544 6548 6549 3236 6534 
6549 6544 6545 6549 6534 6543 6549 6543 6544 
6549 3235 3236 6550 1615 3235 6550 6549 6545 
6550 6551 1615 6550 6545 6547 6550 6547 6551 
6550 3235 6549 3222 3224 3229 3211 3210 3213 
3205 3223 3207 3197 179 181 3194 3196 6552 
3177 323 321 323 3177 3172 3177 321 308 
81 80 3167 6553 852 3173 6554 3199 183 
3190 3181 6555 3190 3182 3181 6556 3201 3202 
6556 6557 3201 6558 6556 3202 3192 6558 3184 
3192 3184 3185 695 3198 3157 694 698 695 
3073 3072 3158 3159 3199 6554 3159 3157 3199 
701 6559 6560 6561 701 6560 6561 6562 6563 
6561 6563 701 3071 3159 6554 3071 3073 3159 
6564 3071 6554 6564 704 3071 6564 705 704 
699 701 6563 700 705 6559 700 6559 701 
3195 184 1098 3187 3195 3194 188 3187 3189 
3187 188 3195 709 187 188 709 188 3189 
707 710 5217 5217 710 712 5217 756 5218 
5217 712 756 5216 708 707 707 187 709 
6565 6555 3162 6565 3162 3161 6566 6565 3161 
3153 3190 6555 3153 6555 6565 3154 3153 6565 
3154 6565 6566 3156 3190 3153 711 710 3155 
3155 709 3189 3155 710 709 3155 3189 3156 
711 714 712 3152 713 711 6567 3240 6537 
6568 6569 3241 6568 3241 3240 6568 3240 6567 
3150 6570 6571 3150 3164 6570 3150 3149 3164 
3151 3150 6571 3151 6571 6569 716 76 6572 
6573 6574 716 6573 6572 6557 6573 716 6572 
2379 6574 6573 690 693 6553 693 6574 2379 
693 692 6574 715 716 6574 73 76 716 
718 73 715 717 3148 718 692 715 6574 
717 3149 3148 692 717 715 6575 718 3148 
6575 3147 6576 6575 3148 3147 74 718 6575 
74 73 718 3144 74 6575 3144 6575 6576 
4872 4870 4869 4872 5587 4870 4872 720 5587 
719 720 4872 53 56 719 4871 721 719 
3142 5585 3141 3140 4982 3142 3138 3141 3137 
1592 685 684 3204 683 685 6577 683 3204 
6577 6578 6579 6580 3128 3127 6581 3128 6580 
6582 6581 6580 6583 6581 6582 6583 6579 6578 
6583 6578 6581 3953 6171 3954 6584 6174 6171 
6584 6171 3953 3123 3125 3129 6585 6580 3127 
6586 6580 6585 6586 6582 6580 3132 3133 3144 
3132 3144 6576 3115 3147 3111 3115 6576 3147 
3112 6569 6568 3112 3111 3151 3112 3151 6569 
3124 3131 6587 3124 3123 3131 3108 3124 6587 
3119 3108 6587 3114 3119 6587 3114 3113 3119 
1611 1615 6551 3109 3124 3108 3105 6588 6589 
3105 6589 3122 3105 3122 3109 3107 3108 3119 
3104 6588 3105 3104 6590 6588 6591 6174 6584 
6591 6584 6592 6591 6178 6174 6591 6593 6178 
6594 6593 6591 6594 6588 6590 6595 6592 6589 
6595 6589 6588 6595 6588 6594 6595 6594 6591 
6595 6591 6592 6596 6590 3104 6596 3104 3106 
6596 6547 6546 6596 6546 6590 6597 6551 6547 
6597 6547 6596 6597 6596 3106 6597 1611 6551 
6598 6178 6593 6598 6599 6178 6600 6594 6590 
6600 6598 6593 6600 6593 6594 6600 6590 6546 
6601 6598 6600 6601 6600 6546 6601 6546 6548 
6602 6601 6548 6602 6548 6544 6602 6544 6542 
6602 6542 6056 1613 6567 6537 1613 6537 1616 
3120 1613 1612 3120 6567 1613 3116 3120 3113 
3116 6568 6567 3116 3112 6568 3116 6567 3120 
3118 1612 1611 3118 1611 6597 3118 6597 3106 
3118 3106 3107 3101 3170 3102 3101 6570 3170 
3101 6571 6570 3098 3241 6569 3098 3097 3241 
3098 6571 3101 3098 6569 6571 3099 3168 6524 
3099 6524 6531 3099 6531 3100 3099 3102 3168 
6603 6598 6601 6603 6599 6598 6604 6602 6056 
6604 6056 6057 6604 6601 6602 6604 6603 6601 
6605 6603 6604 6605 6599 6603 6606 6057 6062 
6606 6062 6173 6606 6173 6605 6606 6605 6604 
6606 6604 6057 3216 6579 6583 3220 3213 3216 
3220 6583 6582 3220 3216 6583 6607 683 6577 
6607 6577 6579 686 684 683 684 180 179 
686 6607 6608 686 683 6607 6609 3207 3223 
3214 3206 3207 3214 3207 6609 181 183 3199 
182 181 180 182 6610 183 182 6611 6610 
6612 686 6608 6612 180 686 6612 182 180 
6612 6611 182 3092 3205 3093 3094 3095 3968 
3089 3226 3090 3088 3090 3224 3086 3961 3089 
3087 3088 3092 3085 3087 3094 3085 3964 3086 
6613 3222 3229 6614 3223 3222 6614 6609 3223 
6614 6610 6611 6614 6613 6610 6614 3222 6613 
6614 6611 6609 6615 6185 6616 6617 6616 6184 
6617 6615 6616 6618 6617 3208 6618 6615 6617 
6618 3208 3211 6619 3209 3208 6620 6166 6168 
6620 6168 538 6621 6184 6183 6621 3208 6617 
6621 6619 3208 6621 6617 6184 6622 6167 6166 
6622 6183 6167 6622 6619 6621 6622 6620 6619 
6622 6166 6620 6622 6621 6183 726 728 727 
3082 538 3095 3082 3093 728 3083 3209 6619 
3083 6619 6620 3083 6620 538 3083 726 3209 
3219 6615 6618 3219 6618 3211 6623 3219 6624 
6623 3950 6185 6623 6615 3219 6623 6185 6615 
3948 6623 6624 3948 3950 6623 6625 6585 3952 
6625 6586 6585 6626 3948 6624 6626 6586 6625 
3949 6626 6625 3949 3948 6626 3949 6625 3952 
3949 3952 3947 6627 6026 6030 3079 6563 6562 
6628 6029 6033 6628 6033 4123 6629 6029 6628 
6629 6627 6030 6629 6030 6029 3076 6628 4123 
3076 4123 3075 748 3075 749 1623 1625 3072 
3228 6559 705 6630 705 6564 6630 3228 705 
6630 3229 3228 6630 6613 3229 6631 6632 6562 
6631 6562 6561 6633 5082 5081 6633 6560 5082 
6633 6561 6560 6633 6631 6561 6634 6026 6627 
6634 6627 6632 6634 6632 6631 6634 6024 6026 
5077 5076 6024 5077 5081 5078 6635 6634 6631 
6635 6633 5081 6635 5077 6024 6635 5081 5077 
6635 6631 6633 6635 6024 6634 703 700 699 
703 704 700 3080 702 699 702 1623 703 
3080 6563 3079 3080 699 6563 3080 732 702 
6636 1624 3078 6637 1624 6636 734 6566 3161 
734 3161 1625 6637 730 1624 6637 733 730 
733 6566 734 741 733 6637 741 713 3154 
741 3154 6566 741 6566 733 6638 6639 6640 
6638 6641 6639 2387 3067 2388 3062 3069 3063 
2383 2388 3062 6642 5230 6643 5228 5230 6642 
1627 1629 6642 1627 6642 6643 6644 6642 1629 
6644 5228 6642 6645 4889 4890 6645 5588 4889 
6645 6644 1629 6645 4890 6644 6646 5591 5590 
6646 4975 5591 4977 6647 6648 4977 6646 6647 
4977 4975 6646 4977 6648 4976 3060 5228 6644 
3060 6644 4890 3060 4890 3056 3057 3056 4854 
3057 4851 6649 3057 6649 3059 3058 5228 3060 
3052 6650 1638 1637 3052 1638 3050 1637 1636 
6651 6639 6641 3042 3050 3043 3044 3049 6652 
3044 3043 3049 740 742 6653 742 6637 6636 
742 741 6637 737 742 6636 737 6653 742 
736 735 739 735 737 6636 736 739 748 
6654 746 745 4129 749 4124 745 747 748 
745 749 4129 6654 5237 746 6654 745 4129 
6654 4129 4128 6655 5237 6654 6655 6654 4128 
6655 4128 6656 2824 6655 6656 796 5237 6655 
796 175 5237 796 6655 2824 6657 736 748 
6657 748 747 6658 6653 737 6658 5235 6653 
6658 736 6657 6658 737 736 6657 750 5234 
6657 747 750 5234 5235 6658 5234 6658 6657 
753 5232 5405 5238 5405 5240 754 5218 756 
5238 764 754 5238 754 753 5238 5240 758 
5238 753 5405 6659 754 764 6659 764 2431 
762 764 761 763 2431 764 3070 6653 5235 
3070 740 6653 6660 753 752 752 754 756 
755 712 714 755 714 744 755 752 756 
5233 3070 5235 5233 744 3070 5233 755 744 
6660 752 755 6660 5232 753 6660 5233 5232 
6660 755 5233 802 6650 3052 6661 803 802 
3054 6661 802 3054 802 3052 6662 5244 6661 
6662 5242 5244 6662 6661 3054 797 803 6661 
797 6661 5244 797 5244 798 3053 3042 3041 
3053 6662 3054 6663 3053 3041 6663 5242 6662 
6663 6662 3053 2404 6663 3041 2404 3041 2405 
6664 760 757 6664 757 5239 762 761 760 
3028 4887 3023 6665 4887 3028 6666 4887 6665 
4879 6666 6665 6667 4879 6665 3039 3033 6667 
3039 3034 3033 3038 6667 6665 3038 3039 6667 
3038 6665 3028 3027 3038 3028 6668 3031 6511 
6668 6511 1101 1100 6668 1101 6669 6668 1100 
6669 6667 3033 6669 3031 6668 6669 3033 3031 
4880 1100 288 4880 6667 6669 4880 4879 6667 
4880 6669 1100 3024 3023 4886 6670 6671 3037 
6672 6671 6507 6672 6507 3032 6672 3032 3034 
6672 3037 6671 6672 3034 3037 3017 3020 3068 
2935 3017 2933 6673 3063 3069 3019 6673 3069 
3019 3069 3020 6674 3064 3063 6674 3063 6673 
5226 3065 3064 6675 5226 3064 6675 3064 6674 
6675 6676 5226 3021 2935 2936 6677 6678 6679 
6677 6680 3021 6677 3021 2936 6677 2936 6678 
6681 6673 3019 6682 6683 6681 3018 6680 6682 
3018 3021 6680 3018 6681 3019 3018 6682 6681 
3014 6683 6682 3009 6276 3812 3009 2497 6276 
3010 3009 3812 2498 2497 3009 3816 6684 6685 
3813 3011 3010 3015 3008 3011 6686 3011 3813 
6686 3015 3011 3817 6686 3813 3817 3813 3814 
3817 3816 6685 3817 6685 6686 6687 6676 6675 
6688 6689 6676 6688 6676 6687 6690 6688 6687 
3013 6683 3014 6691 6683 3013 6692 6675 6674 
6692 6687 6675 6693 6673 6681 6693 6683 6691 
6693 6681 6683 6693 6674 6673 6693 6692 6674 
6693 6691 6692 6694 6690 6687 6694 6687 6692 
6694 6692 6691 6695 3459 6456 3458 3459 6695 
3458 6695 6696 1518 6695 6456 3000 5249 3001 
3002 6697 778 3002 778 777 2586 3001 2584 
6698 6699 6700 6701 6699 6702 6701 6703 6704 
6701 6702 6703 6705 6704 6703 6706 6705 6703 
6707 6705 6706 2879 6704 6705 2999 777 5253 
2999 5246 3000 5246 2999 5253 6708 2993 2994 
6709 2993 6708 6710 6709 6708 2991 6711 6712 
2990 6712 6707 2990 2991 6712 6713 2988 6709 
6713 6709 6710 2986 6707 6706 2986 2990 6707 
2984 2986 6706 2945 2984 2947 2985 2990 2986 
2982 2945 2944 2983 6709 2988 2983 2988 2985 
2983 2993 6709 2983 2982 2993 6714 6715 6716 
6717 6716 6715 6718 6713 6710 6719 6716 6717 
6720 6718 6719 6720 6719 6717 6720 6713 6718 
2989 2988 6713 2989 6713 6720 2973 6711 2991 
2973 6721 6711 2973 2975 6721 2974 2973 2991 
2971 2980 2975 2972 2989 6720 2972 6720 6717 
2972 2974 2989 2970 6715 2978 2970 2978 2971 
2970 6717 6715 2970 2972 6717 1645 6722 6651 
6723 6651 6722 6723 6639 6651 2967 2934 2933 
5222 2968 2967 6724 6639 6723 6724 5222 6640 
6724 2968 5222 6724 6640 6639 2962 2994 2963 
2950 2963 2949 2964 2966 2961 2964 2939 2938 
6725 6723 6722 6726 2966 2968 6726 2968 6724 
6726 6724 6723 6726 6723 6725 6727 6725 6728 
6727 2961 2966 6727 2966 6726 6727 6726 6725 
6729 2994 2962 6729 6708 2994 6730 2961 6727 
6730 6727 6728 6730 6728 6731 6730 6731 6729 
6730 2962 2961 6730 6729 2962 6732 6729 6731 
6732 6710 6708 6732 6708 6729 6733 1664 2775 
6733 6716 6719 6734 6733 2775 6734 6716 6733 
6734 6714 6716 2953 6722 1645 1665 1667 2955 
1646 2953 1645 2952 1662 1665 2954 1646 1642 
2954 2958 2952 6735 2955 1667 6735 6731 6728 
6736 2955 6735 6736 6725 6722 6736 6728 6725 
6736 6735 6728 6736 6722 2953 6736 2953 2955 
6737 6735 1667 6737 6732 6731 6737 6731 6735 
1666 6737 1667 6738 6718 6710 6738 6737 1666 
6738 6710 6732 6738 6732 6737 6739 1664 6733 
6739 1666 1664 6739 6733 6719 6739 6738 1666 
6739 6719 6718 6739 6718 6738 2959 2958 3046 
6740 3046 6652 6740 2959 3046 6741 2959 6740 
6741 2957 2959 2943 2949 2944 2941 2939 2950 
2931 2934 2938 63 2740 5271 6742 5275 5274 
6743 6744 6745 6746 6747 6743 6746 6743 6745 
6748 6747 6746 2920 6749 2927 2919 2920 2927 
766 770 767 2918 768 2921 766 768 2918 
2912 6744 6750 2912 6750 6751 2912 6751 2913 
2914 2928 6745 2914 6745 6744 2914 6744 2912 
2915 2928 2914 6752 769 766 769 5995 770 
4148 4147 5993 5993 771 4148 4148 773 2921 
772 6749 2920 771 773 4148 772 2920 773 
2904 6753 6754 2904 6754 6755 2901 2900 5385 
2901 6753 2904 2903 2904 6755 2903 6755 6749 
2903 6749 772 774 772 771 5993 775 771 
774 775 2902 774 2903 772 6756 4431 1279 
6756 1279 5984 6756 5984 4171 2898 4431 6756 
2898 6756 4171 6757 4173 5983 6757 4170 4173 
6757 6758 4170 2894 6759 4429 2897 2852 2855 
2895 2894 4429 2895 4431 2898 2896 4170 2897 
2896 2898 4171 6760 2852 2897 6760 4170 6758 
6760 2897 4170 6761 2852 6760 6762 6758 6757 
6763 6760 6758 6763 6758 6762 6763 6761 6760 
6764 6762 6765 6764 6763 6762 6766 6763 6764 
6766 6761 6763 2859 6766 6764 6767 769 6768 
6767 5995 769 6767 6768 2908 6769 5995 6767 
2892 6769 6767 2892 6767 2908 2892 2908 2891 
1681 2891 1678 2890 6765 6769 2890 6764 6765 
2890 6769 2892 2889 2859 6764 2889 6764 2890 
2860 2859 2889 6770 6721 2975 6770 2975 2980 
6771 2979 6759 6771 2980 2979 6771 6770 2980 
2881 6712 6711 2880 6705 6707 2880 2879 6705 
2880 6712 2881 2880 6707 6712 2876 6721 6770 
2877 2881 6711 2877 6711 6721 2877 6721 2876 
2875 2881 2877 5247 5246 6772 6773 5247 6772 
5248 5252 5249 2870 778 6697 2869 778 2870 
776 778 2869 2865 2868 2863 2864 6699 6701 
2864 2863 6700 2864 6700 6699 2862 2864 6701 
2862 6701 6704 6774 6773 6772 2874 2882 2875 
6775 2882 2874 1688 1686 2882 1688 2882 6775 
1677 2860 1681 2858 6766 2859 2854 6771 6759 
2854 2894 2855 2854 6759 2894 2853 2852 6761 
2851 2876 6770 2851 6771 2854 2851 6770 6771 
2850 2853 2873 2850 2876 2851 2848 1683 1688 
2848 6775 2857 2848 1688 6775 2846 1677 1676 
2846 2848 2857 2847 1676 1680 6776 6777 2847 
6776 2847 1680 2907 2906 2913 6778 2913 6751 
6778 2907 2913 1679 1678 2907 1679 2907 6778 
6779 6776 1680 6779 1680 1679 6779 2839 6776 
6779 1679 6778 5285 5286 5290 783 5281 5285 
5290 780 5285 5289 5288 6780 5289 781 5290 
5290 781 780 2843 779 781 2842 2841 6777 
2842 6777 6776 2842 6776 2839 2836 2839 6779 
2836 6778 6751 2836 6779 6778 2837 6751 6750 
2837 6750 5279 2837 2836 6751 2838 2837 5279 
780 783 5285 782 2838 783 782 780 779 
2835 2842 2839 2835 782 779 2845 1684 1683 
2845 2847 6777 2866 1687 1684 6781 2845 6777 
2871 2865 2866 6782 2866 1684 6782 2845 6781 
6782 1684 2845 6782 2871 2866 2829 6781 6777 
2829 6777 2841 2829 2841 2830 2832 2826 2869 
2831 6781 2829 2831 6782 6781 2831 2871 6782 
2831 2832 2871 2827 2826 2832 2825 6780 6783 
2826 776 2869 2725 2825 6783 784 788 785 
6784 6772 5246 6784 5253 788 6784 5246 5253 
6785 2843 781 6785 6780 2825 6785 5289 6780 
6785 781 5289 2833 2825 2827 2833 6785 2825 
2833 2830 2843 2833 2843 6785 1320 793 6656 
1320 6656 4128 176 178 5236 177 176 175 
795 798 177 175 795 177 177 798 5243 
177 5243 178 175 796 795 794 796 2824 
794 797 795 794 803 797 791 793 1320 
790 792 791 790 2820 2819 6650 799 2822 
6650 802 799 793 804 2823 2823 2824 6656 
2823 6656 793 793 792 804 6786 1638 6650 
6786 2822 1006 6786 6650 2822 1639 1638 6786 
71 1639 6786 71 6786 1006 70 1639 71 
68 71 1006 804 806 808 806 790 2819 
1265 1267 2821 2817 2821 4451 2820 1266 1265 
2814 5862 2815 6787 5859 5862 6787 2817 4451 
6787 5862 2814 6787 4451 5859 6788 6787 2814 
6788 2814 69 6788 2818 2817 6788 2817 6787 
6789 6714 6734 6789 813 6714 810 813 6789 
6790 813 812 6791 2978 6715 6791 6715 6714 
6791 2977 2978 6791 6790 2977 6791 813 6790 
6791 6714 813 2812 2809 2811 4430 1283 1280 
6792 1283 4430 2807 6792 4430 2807 6793 6792 
2802 6759 2979 2802 4429 6759 2804 4429 2802 
2804 2807 4430 2806 6793 2807 2803 2802 2979 
2805 2977 6790 2805 2803 2977 2798 6792 6793 
2798 6793 2796 2797 2796 2811 2810 1692 6794 
2810 2800 2797 2810 6794 2800 2789 5865 5043 
2789 5868 5865 2794 5868 2789 2792 2800 6794 
2790 2789 5043 2791 2800 2792 2793 2790 5042 
6795 5866 5868 6795 5868 2794 6795 5861 5860 
6795 5860 5866 6796 5861 6795 6796 2794 2792 
6796 2792 6794 6796 6795 2794 2799 2791 2793 
6797 1281 1283 6797 1283 6792 6797 6792 2798 
6797 2798 2799 6798 2793 5042 6798 5042 5856 
6798 5856 1281 6798 1281 6797 6798 2799 2793 
6798 6797 2799 2786 2787 2809 6799 2815 5862 
6799 5862 5861 6799 6794 1692 6799 6796 6794 
6799 5861 6796 6800 3049 3048 6800 6652 3049 
6800 6740 6652 6800 6741 6740 2778 2784 2779 
1635 2781 1636 6801 6800 3048 6801 6741 6800 
2780 3048 2781 2780 6801 3048 2776 2774 2957 
2773 6789 6734 2773 6734 2775 6802 6801 2780 
6802 6741 6801 6802 2776 2957 6802 2957 6741 
2769 2771 5400 2769 6803 6804 2769 5400 6803 
2767 5565 1154 2770 5565 2767 2770 5566 5565 
6805 4958 4954 6805 4954 4911 6805 4911 5566 
6805 5566 2770 6806 6804 4957 6806 4958 6805 
6806 4957 4958 6806 2770 2769 6806 2769 6804 
6806 6805 2770 2673 5400 5398 2673 5398 2679 
2768 5399 2771 1153 2768 2767 1153 2767 1154 
6807 6337 2602 6807 5399 2768 6807 2768 1153 
2600 5397 5399 2600 5399 6807 2600 6807 2602 
1710 816 5254 6808 5389 5388 6809 5389 6808 
6809 1710 5254 6809 5254 5389 6809 6808 6810 
6811 6812 6810 6811 6810 6808 2756 2755 4903 
2756 4903 6813 6814 5392 5258 2749 5385 2753 
6815 6766 2858 6815 2873 2853 6815 2853 6761 
6815 6761 6766 6816 6775 2874 6816 2874 2873 
6816 2858 2857 6816 2857 6775 6816 6815 2858 
6816 2873 6815 1703 2746 1704 1707 1704 5268 
65 6754 6753 65 2923 6754 65 6753 2742 
64 2923 65 6817 6748 2925 6818 63 5271 
2747 6818 5271 2747 5271 2745 2924 64 63 
2924 6818 6819 2924 63 6818 2924 6819 6817 
2924 6817 2925 2736 2739 2734 2735 2751 6814 
2733 2751 2735 2732 2734 2741 2727 823 2736 
2728 6814 5258 2728 2735 6814 2728 5258 2729 
2728 2727 2735 820 2729 817 2682 166 173 
6820 2682 173 6821 2763 6820 6821 2764 2763 
6822 5276 5275 6823 6817 6819 6824 6825 6822 
6826 6823 6824 6826 6822 5275 6826 5275 6742 
6826 6824 6822 6827 6823 6826 6827 6742 6747 
6827 6826 6742 6827 6747 6748 6827 6748 6817 
6827 6817 6823 6828 5276 6822 6828 6822 6825 
6828 6825 6829 172 6821 6820 172 6820 173 
6828 170 5276 6828 172 170 172 6828 6829 
172 6829 6821 6830 5274 5280 6830 6742 5274 
6830 6747 6742 6830 6743 6747 6831 6750 6744 
6831 5280 5279 6831 5279 6750 6831 6830 5280 
6831 6744 6743 6831 6743 6830 6832 6780 5288 
6832 6783 6780 6833 6832 5288 6833 5288 5292 
2724 2725 6783 2724 6783 6832 787 6784 788 
6834 1710 6809 6834 6809 6810 6835 817 814 
6836 1712 1711 6835 820 817 6835 1712 6836 
6835 814 1712 2730 6837 2738 2730 819 6838 
6838 6837 2730 821 820 6835 821 6839 6838 
819 821 6838 821 6835 6836 6840 2757 2756 
2717 2716 2722 1002 2717 2722 6841 2704 2703 
2720 6842 2721 1079 2721 6842 1079 2699 2721 
1077 1079 6842 1078 2695 1079 2693 2702 2694 
2690 2706 2691 2689 2694 2690 2688 2695 2689 
998 6833 5292 6843 6844 2709 2701 2709 2702 
2701 6843 2709 169 5291 5283 999 998 5292 
999 5291 169 999 5292 5291 6845 6846 2707 
2710 6844 6845 2710 2709 6844 2710 2707 2706 
2710 6845 2707 2681 6846 6845 2681 2683 6846 
167 169 5283 168 167 166 2677 2691 2678 
2599 5397 2600 2599 2679 5397 828 2765 2674 
825 824 828 2675 2673 2679 2675 2678 825 
827 6846 2683 6846 827 824 6846 824 2707 
827 2765 828 2668 2667 2699 2665 2609 2608 
2666 2665 1003 2666 1003 1002 2666 2722 2667 
2666 1002 2722 2661 2610 2609 2662 2661 2668 
2662 2688 2663 2660 2599 2601 2660 2663 2677 
2658 6832 6833 2658 2724 6832 2658 2655 2724 
2656 2658 6833 2656 6833 998 2656 998 1001 
2657 2656 1001 6847 2704 6841 6848 2701 2704 
6848 6843 2701 6848 2704 6847 6848 2686 6843 
2685 6848 6847 2685 2686 6848 2651 6774 2726 
2652 2651 2726 2652 2655 2649 2697 2705 2693 
2696 1078 1077 6849 6850 6851 6849 6852 6850 
6853 6852 6849 2645 6851 2711 2645 2711 60 
1527 1530 2643 2641 1528 1527 2641 2642 2646 
2635 2643 2639 2638 3418 6479 2638 2639 3418 
1729 6851 2645 1729 6849 6851 2885 6854 2887 
6855 2887 6854 2630 6855 2633 2631 2630 2633 
6856 6855 2630 6856 2887 6855 6856 2886 2887 
6857 2886 6856 2629 6856 2630 3454 6857 6856 
3454 6856 2629 3454 2629 2628 3454 3455 6857 
6858 6478 6477 6859 2638 6479 6859 6479 6478 
6859 6478 6858 830 6858 831 830 6859 6858 
2637 6859 830 2637 2638 6859 833 2637 830 
833 2636 2637 6860 831 6858 6860 6858 6477 
6861 6860 6862 6861 831 6860 3456 6861 6862 
3456 2627 6861 3456 2628 2627 2622 831 6861 
829 831 2622 2622 6861 2627 829 833 830 
2624 2631 2625 2624 2622 2627 2621 832 829 
1080 832 2623 2647 6853 6863 1152 6807 1153 
1152 6336 6337 1152 1151 6336 1152 6337 6807 
2619 6337 3692 2619 3692 2620 2619 2602 6337 
2618 3694 6334 2618 2620 3694 2615 2618 6334 
2615 6334 5376 2615 2614 2618 2615 5376 2616 
2607 2613 2608 2606 2614 2607 2604 2610 2601 
2603 2602 2619 2603 2606 2604 2596 6803 2762 
2596 6804 6803 2596 4957 6804 2596 2762 2597 
2595 4957 2596 2594 2597 2764 282 5535 4952 
280 282 4952 283 2595 2593 283 2593 281 
283 281 280 4949 284 280 993 1703 1708 
2590 5535 282 2588 282 281 2588 2590 282 
6864 2764 6821 6864 2594 2764 6864 6821 6829 
6865 6819 6818 6865 6818 2747 6866 6864 6829 
6866 6829 6825 6867 6823 6819 6867 6824 6823 
6867 6819 6865 995 6867 6865 6868 6866 6825 
6868 6825 6824 6868 6867 995 6868 6824 6867 
996 6865 2747 996 995 6865 6869 2587 2577 
6870 2587 6869 2585 6697 3002 2585 3002 2586 
2585 2587 6870 2585 6870 6697 2579 2582 2576 
2578 2577 2587 2571 2573 2579 2572 2571 2578 
2574 2572 2584 2581 2996 2582 6871 2996 2581 
2566 6871 2581 2566 2581 2567 2561 6871 2566 
2561 2566 2559 837 2567 838 835 838 2570 
2570 838 2573 6872 836 835 834 837 835 
834 2557 837 2547 2943 2548 2946 2947 6873 
2946 2550 2548 6874 2550 2946 6874 2946 6873 
6875 6702 6699 6875 6699 6698 6875 6873 6702 
6875 6874 6873 2544 6869 2577 2542 2544 2577 
2541 2550 6874 2543 2542 2576 2545 2543 2552 
2540 2550 2541 2540 2545 2549 6876 6869 2544 
6877 6874 6875 6877 2541 6874 6877 6875 6698 
6877 6698 6876 6877 6876 2544 6877 2544 2541 
2560 2564 2530 2538 6461 3460 2535 2538 3460 
2532 2538 2533 2532 6461 2538 2529 2560 2530 
840 6871 2561 2525 840 2561 2522 2549 2524 
2521 2547 2522 2521 2523 2941 2932 6678 2936 
2940 2932 2931 2520 2940 2523 2554 2519 2524 
6878 2940 2520 6878 6678 2932 6878 2932 2940 
2553 5373 6879 2553 2552 5374 2553 6879 2554 
2553 5374 5373 6880 1653 6679 6881 6679 6678 
6881 6678 6878 6881 6880 6679 2517 6879 5373 
2517 2515 6879 2512 6696 6695 2512 6695 1518 
1517 1516 2511 1517 2512 1518 2509 6696 2512 
6882 6696 2509 2536 2535 3458 2536 3458 6696 
2536 6882 2537 2536 6696 6882 2505 2517 5373 
2504 2517 2505 2503 2537 6882 2502 2537 2503 
2502 2527 2537 2499 2514 2500 2499 6880 2514 
2499 1653 6880 6883 5401 6278 6883 3818 5401 
2474 3006 6684 2493 6684 3816 2493 2474 6684 
2494 2493 3816 2487 1628 1627 2487 1627 6643 
2458 6884 2483 2458 2483 2459 2488 6884 2458 
2488 2458 2457 2477 6690 3004 2477 6688 6690 
2480 2477 3004 2481 6884 2488 2479 2487 6643 
2476 6689 6688 2476 6688 2477 2478 2481 2488 
2478 2487 2479 2472 3006 2474 2473 2474 2493 
2470 2483 6884 2471 2473 2492 2469 2483 2470 
6885 6463 6462 6885 6462 6886 6885 6278 6463 
6885 6883 6278 6885 6887 6883 6885 6886 6887 
3819 3818 6883 3819 6887 2491 3819 2491 2494 
3819 6883 6887 2467 2491 6887 2467 6887 6886 
2467 6886 2465 2464 2463 2492 2464 2491 2467 
2484 2469 2471 6888 2492 2463 6888 2471 2492 
6888 2484 2471 1735 1737 2484 1735 2484 6888 
2451 2454 1577 6889 2451 1577 6890 6670 6891 
6889 6670 6890 6892 6889 6890 6892 6890 1733 
6892 2451 6889 6893 1735 6888 6893 6888 2463 
2466 6893 2463 2449 2466 2446 1736 1735 6893 
6894 2449 2452 6894 6893 2466 6894 2466 2449 
6894 1736 6893 6895 1733 1736 6895 6892 1733 
6895 2452 2451 6895 2451 6892 6895 1736 6894 
6895 6894 2452 6896 6891 3026 3025 6896 3026 
3025 3024 6897 6898 3025 6897 6898 6896 3025 
6898 6897 2460 6898 1738 6896 2485 2460 2459 
2485 1738 6898 2485 1737 1738 2485 6898 2460 
6899 6897 3024 6899 4886 4976 6899 3024 4886 
6899 4976 6648 2461 6899 6648 2461 2460 6897 
2461 6897 6899 2456 2489 2457 2456 6648 6647 
2456 2461 6648 2456 6647 2489 6900 6464 6469 
6900 6462 6464 6900 6469 6901 6902 6901 6502 
6902 6900 6901 2445 2444 2453 2445 2452 2449 
2448 6902 6502 2448 6502 3272 2448 3272 2444 
6903 6900 6902 6903 6462 6900 6903 6886 6462 
6903 2465 6886 6904 760 6664 2406 6904 6664 
6905 5239 5242 6905 6664 5239 6905 5242 6663 
6905 6663 2404 6905 2404 2406 6905 2406 6664 
2402 6906 6904 2402 6904 2406 6907 6904 6906 
6907 760 6904 6907 6906 6908 3136 720 56 
3136 56 55 3136 55 2440 6909 6910 6911 
2441 2437 2436 2432 6659 2431 1096 721 1097 
1096 723 721 1096 708 724 1096 724 723 
723 53 721 54 723 722 6912 6659 2432 
2438 722 6912 2438 54 722 2438 6912 2432 
2438 2432 2434 6913 6914 6915 6916 6913 6915 
6916 6915 846 6916 6917 6913 6918 6909 6911 
2428 2427 6919 2426 2442 2427 2425 2440 2426 
2424 3138 2425 2420 4851 2421 2422 2421 4853 
2418 2428 2419 2417 2422 3140 2417 2424 2418 
6920 2420 2419 6921 2419 2428 6921 990 6920 
6921 6920 2419 6921 2428 6919 6922 2427 2442 
6922 6919 2427 6923 6909 6918 6923 6918 6922 
6923 2442 2441 6923 6922 2442 6924 6925 991 
6926 6918 6911 6927 6918 6926 6927 6926 6924 
6927 6922 6918 6927 6919 6922 6928 990 6921 
6928 991 990 6928 6924 991 6928 6927 6924 
6928 6919 6927 6928 6921 6919 6929 846 6915 
6930 6915 6914 6930 6914 6931 6930 6929 6915 
6932 6929 6930 6932 6926 6911 6933 6925 6924 
6933 6932 6930 6933 6926 6932 6933 6924 6926 
6933 6931 6925 6933 6930 6931 844 6908 6906 
844 6934 6908 1743 844 6906 1743 6906 2402 
843 846 6929 842 844 1743 843 842 846 
843 6934 844 6935 6910 6934 6935 6911 6910 
6935 6932 6911 6935 843 6929 6935 6929 6932 
6935 6934 843 2433 2436 2434 6936 2441 2436 
6936 6909 6923 6936 6923 2441 6936 2436 2433 
6937 6934 6910 6937 6908 6934 2430 6909 6936 
2430 6936 2433 2430 6910 6909 2430 6937 6910 
6907 762 760 6907 765 762 765 6908 6937 
765 6907 6908 765 6937 2430 2414 2410 2411 
2413 6652 3046 2413 3044 6652 2413 3046 2414 
2415 3044 2413 2403 2405 2415 2396 3058 2397 
2396 2400 5225 2393 2399 2394 2392 2391 3065 
2392 2400 2393 2384 2383 2391 6938 6913 6917 
6938 6917 6939 2408 6916 2409 2408 6917 6916 
1643 6939 6917 1643 6917 2408 6940 6925 6931 
989 991 6925 989 6925 6940 6941 2386 6942 
6941 2387 2386 6943 6939 6641 6943 6941 6942 
6943 6638 6941 6943 6641 6638 6943 6938 6939 
6943 6942 6938 6944 2386 2385 6944 6942 2386 
6944 2385 6945 2390 2385 2384 2390 6945 2385 
6946 2420 6920 6946 4851 2420 6946 6649 4851 
2398 2397 3059 6947 6649 6946 6947 2398 3059 
6947 3059 6649 6948 6940 6945 6948 6945 2390 
6948 2390 2394 6948 989 6940 6949 2394 2399 
6949 6948 2394 6949 989 6948 687 3173 852 
848 688 687 848 687 852 1155 688 847 
847 848 849 847 850 6950 6950 3196 1156 
6950 6552 3196 6950 850 6552 2380 6557 6556 
2380 6573 6557 2380 2379 6573 2381 6558 3192 
2381 6556 6558 2381 2380 6556 2378 852 6553 
2378 6553 693 2378 693 2379 851 852 2378 
851 849 848 853 2381 3192 2377 853 851 
262 1173 1172 265 262 261 2371 6951 5300 
2371 2376 6951 2373 2376 2371 2355 2356 2373 
2374 1750 1747 2372 2371 5300 2372 5298 2374 
2369 5300 6951 2367 5300 2369 2366 21 24 
2366 24 5372 2366 5372 5299 2366 5299 2367 
6952 2369 6951 6952 2368 2369 6952 6953 2368 
2353 2368 6953 2353 6953 1165 2353 2352 2368 
6954 1166 1165 6954 1165 6953 6954 5516 1166 
5512 264 261 5512 261 4993 6955 5513 5515 
6955 5512 5513 6955 264 5512 6956 6951 2376 
6956 6952 6951 6957 264 6955 6958 6956 6957 
6958 6952 6956 6958 6954 6953 6958 6953 6952 
6959 5515 5516 6959 6958 6957 6959 6954 6958 
6959 5516 6954 6959 6955 5515 6959 6957 6955 
6960 2376 265 6960 6956 2376 6960 265 264 
6960 6957 6956 6960 264 6957 6961 6962 6963 
5303 6962 6961 2363 6532 6539 2363 6539 3230 
2363 3230 2361 2360 6963 5366 2360 5366 2335 
2362 2361 6964 2362 6963 2360 2362 6964 6961 
2362 6961 6963 2364 6532 2363 2364 6533 6532 
2333 2360 2335 6965 6535 1748 6965 6536 6535 
6966 5303 6961 6966 6961 6964 3233 3232 6536 
3233 6536 6965 3233 6966 6964 3233 6964 2361 
3233 6965 6966 1749 6965 1748 1749 5303 6966 
1749 6966 6965 2357 6526 5213 2357 5213 2358 
682 5209 5211 1753 5209 682 6967 5207 5206 
6967 1753 5207 6967 5210 5209 6967 5209 1753 
1752 5207 1753 1752 2351 5207 6968 5369 5371 
2349 2348 5369 2349 5369 6968 6275 857 854 
2345 568 410 2347 2349 6968 2347 6968 679 
678 6523 2346 6523 680 5211 6523 678 680 
678 2347 679 856 2349 2347 6275 407 1389 
6275 854 2345 6275 1389 857 6275 2345 410 
2340 2339 2348 2340 858 2341 2336 2335 2342 
2336 2343 2337 2327 4985 2328 2327 2326 3255 
6969 5615 6517 6969 2330 5614 6969 5614 5615 
6970 4985 2327 6970 5522 4985 6970 2327 3255 
6970 3255 6520 667 668 2319 192 190 550 
51 1758 48 51 50 1759 551 549 667 
551 550 549 551 2317 552 550 552 3857 
2316 2315 2321 2316 2321 2323 2316 2323 3737 
2316 3737 2318 6971 2330 6969 6972 6521 3256 
2325 6971 6972 2325 6972 3256 2325 3256 2326 
2325 2330 6971 1755 6521 6972 1755 1759 6521 
6973 1755 6972 6973 6972 6971 6974 6969 6517 
6974 6492 6491 6974 6517 6492 6974 6491 6973 
6974 6971 6969 6974 6973 6971 1756 6973 6491 
1756 1755 6973 1756 6491 3361 1756 3361 1757 
6975 6506 3404 3406 6506 6975 3406 636 3409 
3406 3409 6506 86 6976 3411 2314 2289 164 
2313 2289 2314 979 2314 164 979 2310 2314 
2308 6976 2309 195 85 196 2305 5422 6476 
2305 200 5422 5421 200 197 865 5460 6326 
866 6327 2270 866 6326 6327 866 865 6326 
864 866 2269 2269 866 2270 2301 2269 2268 
39 2312 40 6977 2312 39 5305 2312 6977 
5305 2313 2312 6977 869 1761 220 217 216 
6978 5146 5460 6978 5460 865 6978 219 216 
6978 216 5146 868 6978 865 868 219 6978 
868 865 864 44 6476 3432 44 2305 6476 
44 3432 3431 6979 3431 220 6979 220 219 
45 3431 6979 45 44 3431 2295 6466 6465 
2297 6980 6466 2297 6466 2295 162 164 2289 
2272 6981 2298 2272 2298 2273 2293 6982 6980 
2292 3446 6504 2292 2291 3446 2292 6504 6982 
2292 6982 2293 161 163 162 161 6981 163 
6983 2298 6981 6983 6981 161 2296 2298 6983 
6984 2297 2296 6984 6980 2297 6984 2293 6980 
2286 2293 6984 2285 876 2288 35 34 2260 
2281 36 35 1534 19 860 863 860 859 
3403 6975 3404 6975 862 859 6975 859 3406 
862 6975 3403 881 863 862 881 2281 863 
2278 881 862 2278 862 3403 2275 877 879 
2279 2278 3403 2276 2279 3402 2277 2276 2291 
2277 874 877 6985 2285 2288 5307 2288 2287 
5307 6985 2288 2283 37 6985 2283 6985 5307 
5306 2284 2283 5306 2283 5307 2300 1767 2284 
6986 2284 5306 6986 5306 5305 6986 5305 6977 
6986 2300 2284 6986 6977 1761 6986 1761 2300 
6987 3434 3411 6987 6976 2308 6987 3411 6976 
982 3435 3434 982 3434 6987 981 6470 6472 
981 3435 982 981 6472 3435 984 2274 6470 
984 6470 981 2262 2267 2263 2258 2265 2259 
2250 2256 2251 2249 1491 1490 2249 2248 1491 
6988 1490 1489 6989 1490 6988 6989 2249 1490 
2246 6990 6991 2245 6990 2246 2245 6992 6990 
1443 6438 4998 1443 4998 1440 882 886 1443 
1439 883 882 1443 886 6438 882 884 885 
893 6438 886 2239 2246 6991 2242 6439 6437 
2242 2244 3624 2242 3624 6439 2241 2246 2239 
2243 6437 6438 2243 2242 6437 2243 893 2241 
2243 6438 893 2240 3625 2244 2240 6436 3625 
6993 2240 2239 6993 2239 6991 6993 6988 1489 
6993 1489 6436 6993 6436 2240 6993 6991 6988 
889 6994 6992 6995 6996 6994 6995 6994 889 
888 6995 889 6997 91 6410 6997 3530 91 
6998 3530 6997 2237 6997 6410 2236 6997 2237 
2236 6998 6997 2231 2234 6416 2231 6416 6430 
2230 2234 2231 6999 6996 6995 2224 2255 6996 
2224 6996 6999 2224 2223 2255 2225 2232 2226 
2221 2219 3530 2221 6998 7000 2221 3530 6998 
891 2221 7000 891 7000 888 2215 889 6992 
2215 6992 2245 887 889 2215 887 891 888 
2215 2245 2216 890 2214 2220 2213 890 887 
2217 5445 2214 2217 885 5445 894 885 2217 
894 893 886 7001 6378 6381 7002 6364 2202 
7002 3614 3613 7002 3613 6364 7003 3614 7002 
2205 7002 2202 2205 7003 7002 7004 6392 6391 
7004 2203 6392 7005 7006 7007 7005 7004 6391 
7005 7007 7004 2206 2203 7004 2206 7004 7007 
2200 7001 6381 2200 7006 7001 2199 7007 7006 
2199 7006 2200 7008 2210 5480 7008 5480 3789 
7008 3789 3788 7009 5481 3562 7009 5479 3777 
7009 3777 5481 7009 6374 5479 7009 3559 6374 
7009 3562 3559 7010 7011 2197 7012 3562 5481 
7012 5481 5480 7012 3563 3562 2209 7011 7010 
7013 2209 7010 7013 5480 2210 7013 7012 5480 
7013 2210 2209 7014 7013 7010 7014 3563 7012 
7014 7012 7013 7014 7010 2197 7015 3563 7014 
7015 7014 2197 2211 2210 7008 7016 3788 6291 
7016 7008 3788 7016 2211 7008 2194 2211 7016 
5001 2194 7016 5001 7016 6291 5001 6291 5002 
2191 7003 2212 2191 3614 7003 2193 3614 2191 
2190 3612 2193 2190 6362 3612 2190 5005 6362 
2192 2211 2194 2192 2191 2212 2189 2194 5001 
2189 5005 2190 898 897 6353 6347 895 2187 
2187 2178 2176 6347 896 895 2187 6350 6347 
2187 2176 6350 895 897 898 7017 5358 5360 
7017 5360 7018 7019 5364 5365 7019 7018 5364 
7019 7017 7018 2185 1778 1777 2186 898 6353 
2186 2185 898 2184 5358 7017 2183 2184 7017 
2183 7017 7019 7020 5365 5356 2177 2180 2174 
902 2162 2165 2159 2169 2161 2159 2158 2166 
1783 2155 5163 1781 1783 5163 1781 5163 6341 
7021 5313 5363 2167 2165 5313 2167 5313 7021 
2151 5448 2156 2151 2150 5449 2151 5449 5448 
2149 2151 2156 2145 5362 5359 2145 5359 2144 
7022 6352 6355 7022 6353 6352 7023 3630 6357 
7024 7022 6355 3631 7023 7024 3631 6355 3628 
3631 7024 6355 3631 3630 7023 7025 7023 6357 
7026 7027 7025 7028 7023 7025 7028 7024 7023 
7028 7025 7027 2152 7026 2150 2152 7027 7026 
2147 7027 2152 2147 2152 2146 2157 903 900 
2140 2139 2163 2141 2140 904 2134 2136 2139 
1445 2131 1446 7029 1113 5155 7029 5458 1113 
2130 7029 5155 2130 5155 2131 2137 5355 2135 
7030 5356 5355 7030 7020 5356 2124 2126 5458 
2124 5458 7029 2132 2128 2181 2132 7020 7030 
2132 7030 2129 2132 2181 7020 7031 904 903 
7031 2141 904 7032 3662 3682 7033 2160 3662 
7033 7032 7031 7033 7031 903 7033 903 2160 
7033 3662 7032 7034 7031 7032 7034 2141 7031 
7034 2142 2141 7035 3681 5142 7035 5142 6333 
7035 6333 2119 7036 2142 7034 7036 7035 2119 
7037 7035 7036 7037 7036 7034 7037 7034 7032 
7037 3681 7035 7037 3682 3681 7037 7032 3682 
2117 2120 2134 2116 2115 2125 2116 2123 2120 
2118 2142 7036 2118 2117 2142 2118 7036 2119 
906 2167 7021 906 7021 1782 2172 905 907 
905 2167 906 908 907 906 908 1781 6341 
908 1782 1781 908 906 1782 909 6341 6342 
909 908 6341 907 909 3644 909 3645 3644 
909 6342 3645 2172 907 3644 2172 3644 2170 
2172 2166 905 7038 5101 6309 7038 6289 5473 
7038 6308 6289 7038 6309 6308 7038 5473 5103 
7038 5103 5101 7039 6310 6309 7039 6309 5101 
7039 5101 5100 7040 6310 7039 7041 7039 5100 
7041 7040 7039 7041 7042 7040 7043 5100 5102 
7043 7041 5100 7044 6319 3759 7044 3759 3758 
7044 2112 6319 1409 2113 1410 1409 1407 2112 
2111 2112 7044 7045 2111 7044 7045 7044 3758 
7046 7040 7042 7047 7046 7042 1796 7047 7042 
1420 2108 1423 2107 1420 1419 2109 2107 2113 
2103 2108 2105 2102 3726 2103 2104 7043 2102 
2104 1796 7042 2104 7041 7043 2104 7042 7041 
7048 6303 6307 2100 7049 7050 2098 7051 7048 
2097 2100 7050 2097 3758 2095 2097 7050 7045 
2097 7045 3758 2096 3761 6312 2096 2095 3761 
2096 7051 2098 2096 6312 7051 7052 7047 7049 
7052 7046 7047 7052 7049 2100 2099 7052 2100 
7053 6306 3797 7053 7052 2099 7054 7048 6307 
7054 2098 7048 7054 6307 6306 7054 6306 7053 
7054 7053 2099 7054 2099 2098 7055 3837 3840 
7055 6250 3837 7055 3840 6253 7055 3835 3834 
7055 6253 3835 7056 5106 5472 7057 5469 6286 
7057 5468 5469 7057 5472 5468 7058 6237 5107 
7059 5107 5106 7059 7058 5107 7059 5106 7056 
7060 6237 7058 7060 6238 6237 7060 6244 6238 
2087 7055 3834 2087 6250 7055 2087 3834 2088 
2086 2091 6248 2086 6250 2087 2086 6248 6250 
2085 2091 2086 2083 3833 230 2083 2088 3833 
7061 2083 230 7061 230 233 2081 1382 6244 
1379 232 1380 1379 1382 2081 2080 7061 233 
2078 2081 6244 2078 2076 2081 2078 6244 7060 
2077 7060 7058 2077 2078 7060 7062 5478 5485 
7063 5476 5478 7063 5477 5476 2058 5485 1368 
2058 7062 5485 2069 6249 6248 2069 6248 2091 
2069 2091 2067 2071 6249 2069 7064 5090 5087 
7064 5097 5487 7064 5490 5090 7064 5087 5097 
7065 5490 7064 7065 7064 5487 7065 5488 5490 
2070 5487 5486 2070 7065 5487 2070 5486 2071 
2070 2072 7065 7066 1386 109 7066 5095 1386 
7066 2071 5486 7066 5486 5095 7066 109 6249 
7066 6249 2071 7067 7065 2072 7067 2072 7068 
7067 5488 7065 912 911 5488 912 5488 7067 
7069 7057 6286 7070 5477 7063 7070 7069 6286 
7071 5472 7057 7071 7056 5472 7071 7057 7069 
7072 7069 7070 7072 2061 7071 7072 7071 7069 
2062 7073 2074 2063 2062 2074 2065 7058 7059 
2065 2077 7058 2065 2063 2077 2064 7056 7071 
2064 7071 2061 2064 7059 7056 2064 2065 7059 
7074 2092 7073 7074 2093 2092 2068 2067 2093 
2068 7068 2072 7075 7068 2068 7075 2093 7074 
7075 2068 2093 7076 7068 7075 7077 5478 7062 
7077 7063 5478 7078 7072 7070 7078 7077 1800 
7078 7063 7077 7078 7070 7063 2059 1800 7077 
2059 1804 1800 2059 7077 7062 2058 2059 7062 
1367 2058 1368 1366 911 910 913 7076 1804 
913 910 912 913 7068 7076 913 912 7067 
913 7067 7068 7079 6812 6811 7080 5884 2759 
7080 7079 6811 2758 7079 7080 2758 7080 2759 
2758 2757 7081 2758 7081 7079 7082 1256 5892 
1259 1256 7082 7083 2051 2047 7083 2047 1259 
7084 5319 5318 7084 5354 5319 2046 5318 2042 
2043 5320 5353 2043 2042 5320 919 5318 2046 
919 7084 5318 2038 5351 5354 2038 2040 5351 
7085 5504 5762 2032 5504 7085 2032 2033 5504 
2034 4498 2033 2025 5353 5352 7086 5348 5347 
7087 5347 5349 7087 5349 1993 2023 5348 7086 
2023 2025 5352 2023 5352 5348 2013 2016 2020 
2012 2027 5756 2012 5756 2014 7088 4563 4561 
7089 7088 4561 7090 7089 4561 7090 4561 4560 
7091 2043 5353 2044 2043 7091 7092 4543 4563 
7092 4540 4543 7092 4563 7088 7093 4540 7092 
7093 4538 4540 2021 2026 2018 7094 4538 7093 
7094 2026 2021 1055 5008 381 7095 5354 7084 
7096 4628 5007 7097 7096 5007 7097 5007 5008 
7097 5008 1055 2008 7089 7090 2008 7098 7089 
2005 5704 5705 2004 5704 2005 2004 2008 7090 
7099 7091 7098 7099 2044 7091 2007 7098 2008 
2007 7099 7098 390 388 387 4633 391 387 
390 5703 388 390 391 5726 7100 5726 2009 
7100 5703 390 7100 2005 5705 7100 5705 5703 
7100 390 5726 7100 2009 2005 7101 2009 5726 
7101 5726 5725 2006 2009 7101 7102 5725 5724 
7102 7101 5725 7102 5724 2002 916 919 2046 
916 915 919 2000 916 2046 917 4628 7096 
917 1999 4628 915 917 7096 2001 2000 2045 
2001 7102 2002 1993 1992 7087 1997 2028 1992 
1997 1996 5761 7103 5760 5758 7103 5669 5760 
7104 7103 5758 7104 2032 7085 7104 7105 2032 
7104 7085 7103 1995 7104 5758 1995 1994 7105 
1995 7105 7104 1995 5758 1996 4499 4685 4500 
2035 4499 2034 2035 2031 2039 5693 346 4683 
4682 5693 4683 918 7084 919 7106 918 915 
918 7095 7084 7106 7096 7097 7106 915 7096 
7107 918 7106 7107 7095 918 7108 1989 7107 
7108 7107 7106 7108 7097 1055 7108 7106 7097 
7108 1057 1989 7108 1055 1057 1990 1207 5692 
1990 1056 1207 7109 1990 5692 7109 349 5693 
7109 5692 349 922 5693 4682 922 7109 5693 
7109 921 1990 7110 2035 2039 7110 4685 4499 
7110 4499 2035 7111 922 4682 7111 4685 7110 
7111 4682 4685 7112 7113 7114 5138 7112 7114 
1988 7112 1976 1988 7113 7112 1987 7113 1988 
1919 6315 6314 7115 5133 6315 1984 1933 1932 
1982 1986 1983 1982 1984 5323 1978 1918 1920 
1980 6315 1919 1980 7115 6315 1980 1919 1918 
1979 1988 1976 1979 1978 1983 5131 7116 1121 
5131 5133 7115 5131 7115 7116 1977 7116 7115 
1977 7115 1980 7117 1977 1976 7117 7116 1977 
7117 1976 7112 7117 7112 5138 5139 1121 7116 
5139 7116 7117 5139 7117 5138 926 925 929 
926 929 5327 926 5327 7118 925 927 1973 
1972 3633 1974 931 1973 927 1969 1928 1930 
1970 1969 3648 1971 1970 5166 932 931 933 
7119 933 931 7119 7120 1968 7119 1968 933 
7119 931 927 7121 7120 7119 7121 926 7118 
7121 927 926 7121 7119 927 7122 5645 1401 
3746 5645 1953 3746 1401 5645 1966 7123 5646 
1965 7122 7113 1965 7113 1987 1967 1966 5646 
1967 5646 5645 1967 5645 7122 1967 7122 1965 
1963 1986 1964 1963 1965 1987 1960 7123 1966 
1961 1960 1966 1957 5328 1958 1957 1961 1964 
1952 1955 4768 1950 1952 4767 1950 4767 6296 
1954 7123 5644 1954 5644 1955 1954 5646 7123 
1954 1953 5646 1951 3746 1953 7124 5637 5642 
7125 5644 7123 7125 7123 1960 7125 7124 5642 
7125 5642 5644 7125 1960 1959 7125 1959 7124 
1948 1947 1973 1946 1948 1974 1946 3634 1944 
1945 4777 5638 1945 1944 4777 1941 7124 1959 
1941 5637 7124 1941 5638 5637 1939 1941 1959 
1940 1945 5638 1940 5638 1941 928 1939 1958 
1947 925 1973 928 925 1938 1947 1938 925 
1942 1945 1940 1942 1938 1947 1144 5631 1141 
1144 1143 4775 7126 4774 5640 7126 4775 4774 
7126 5640 5639 7127 5631 1144 7127 4775 7126 
7127 1144 4775 7128 5638 4777 7128 5639 5638 
7128 7127 7126 7128 7126 5639 4778 7127 7128 
4778 7128 4777 4778 5631 7127 4778 137 5631 
5325 7129 7118 5325 5327 5322 5325 7118 5327 
5325 5324 7129 1934 5324 1932 1934 1936 4796 
1934 4796 5620 7130 5620 5621 7130 1934 5620 
7130 5324 1934 7130 7129 5324 7131 7129 7130 
7131 7130 5621 7131 5621 5622 1927 4807 1925 
1923 1922 1935 1923 1933 1920 1921 1919 6314 
1921 4816 1922 1921 5616 4816 1921 6314 5616 
1915 311 5612 936 939 1915 1915 313 311 
1915 939 313 7132 5337 5345 1161 1160 1912 
1906 1908 938 1909 1912 1910 1896 5344 5332 
1896 7133 5344 1896 5332 1897 1900 1899 1902 
1900 7133 1896 1900 7134 7133 1904 1903 277 
1904 277 5520 1914 1163 1161 7135 1900 1902 
7135 7134 1900 7135 1913 7134 7135 1914 1913 
7135 1163 1914 7136 1904 5520 7136 5520 1158 
7136 1158 1163 7136 7135 1902 7136 1902 1904 
7136 1163 7135 1890 945 5337 1890 5337 7132 
940 32 31 948 945 944 5604 270 1899 
7137 5603 5604 1898 5604 1899 1898 7137 5604 
1898 7138 7137 7139 5600 5599 7139 5599 5603 
7139 5603 7137 5333 5334 5338 7140 5333 5338 
1886 5333 7140 1886 1885 5333 943 1890 7132 
943 1916 937 1890 940 31 943 7132 1916 
942 941 940 942 943 937 1890 943 940 
942 5612 941 937 936 1915 942 1915 5612 
7141 7142 1891 951 4845 4844 951 7141 4845 
1894 1892 4845 1894 4845 7141 1894 7141 1891 
1894 1891 30 7143 5338 948 7143 7140 5338 
7142 944 1891 947 7143 948 7142 947 944 
1882 5593 5594 1881 5593 1882 1881 5592 5593 
7144 1886 7140 1888 1886 7144 7145 951 4844 
7145 4844 5609 7145 5609 4866 950 7142 7141 
949 951 7145 950 7141 951 1878 947 7142 
1878 7142 950 1873 1877 4980 1875 953 1877 
1874 1881 1876 1874 5592 1881 7146 7137 7138 
7146 7138 1887 7146 5600 7139 7146 7139 7137 
1889 5600 7146 1889 7146 1887 7147 1865 4859 
1870 1865 7147 1871 5582 5598 1871 5583 5582 
1871 1870 7147 1871 7147 5583 1869 5600 1889 
1869 1889 1867 1869 5598 5600 1869 1871 5598 
1860 1865 1870 1863 1882 5594 1863 5594 4856 
1862 1882 1863 1864 1863 4856 1864 4859 1865 
7148 1888 7144 1861 7148 1883 1861 1883 1862 
7149 5538 5537 1837 1856 5573 7150 1837 5573 
7150 1834 1837 7150 7151 1834 1857 4903 1858 
1857 6813 4903 1836 1856 1837 1832 1851 1833 
1852 1832 1834 1852 1834 7151 1852 5343 1849 
1852 7151 5343 1853 5538 7149 1850 1849 5342 
1850 5538 1853 961 960 4454 1847 961 4454 
958 5437 955 958 4456 5437 954 958 955 
954 956 1845 1845 956 5556 1845 5556 5555 
1846 5341 1842 1846 1845 5555 1846 5555 5540 
1846 5540 5341 1841 1844 954 1839 4897 5816 
1839 1840 4897 1839 5816 1047 1047 960 959 
1047 959 1839 962 959 961 7152 5343 7151 
5340 7152 7153 5340 5343 7152 1843 7153 1838 
1843 5340 7153 1843 1842 5340 1843 1838 1844 
7154 7152 7151 7154 7151 7150 7153 964 1838 
966 7153 7152 966 7152 7154 4898 5575 4900 
7155 966 7154 7155 5575 4898 965 7155 4898 
965 966 7155 7153 966 964 965 4898 1840 
7156 7155 7154 7156 5573 5576 7156 5576 5575 
7156 5575 7155 7156 7154 7150 7156 7150 5573 
968 5544 5546 7157 5543 5559 7157 5559 4943 
7157 5546 5543 7157 968 5546 7157 4943 969 
7157 969 968 7158 968 967 967 969 970 
7158 5545 5544 7158 5544 968 7158 967 4932 
1868 1867 1888 1868 1861 1860 1868 7148 1861 
1868 1888 7148 1830 7143 947 1830 947 1878 
1826 7144 7140 1826 7143 1830 1826 7140 7143 
1827 1875 1828 1827 1830 1878 1825 7144 1826 
1825 1883 7148 1825 7148 7144 1829 1828 1876 
1829 1883 1825 5331 1885 1887 5331 1887 7138 
5331 1898 1897 5331 7138 1898 1820 7133 7134 
1820 7134 1913 1823 1909 1821 1823 1820 1913 
1819 5345 5344 1819 5344 7133 1819 7133 1820 
1822 1821 1906 1818 5345 1819 1818 7132 5345 
1818 1916 7132 1818 1822 1916 7159 5622 4807 
7159 4807 1927 7159 7131 5622 7160 7120 7121 
7160 7121 7118 7160 7118 7129 7160 7159 7120 
7160 7129 7131 7160 7131 7159 1929 1928 1968 
1929 1968 7120 1929 7159 1927 1929 7120 7159 
1816 5354 7095 1816 2038 5354 1816 1815 2038 
1814 2039 1815 1814 7110 2039 1814 7111 7110 
7109 922 921 920 922 7111 920 7111 1814 
1813 7107 1989 1813 1816 7095 1813 7095 7107 
923 1813 1989 923 921 920 7161 2001 2045 
7161 7102 2001 7161 2006 7101 7161 7101 7102 
7162 7099 2007 7162 2006 7161 7162 2007 2006 
7162 7161 2045 7162 2045 2044 7162 2044 7099 
1811 7094 7093 1811 2026 7094 1808 2026 1811 
1809 7093 7092 1809 1811 7093 1809 7092 7088 
1806 7098 7091 1807 2025 1808 1807 5353 2025 
1807 7091 5353 1807 1806 7091 1810 1809 7088 
1810 7088 7089 1810 7089 7098 1810 7098 1806 
7163 1992 2028 7164 5347 7087 7164 1992 7163 
7164 7087 1992 7164 7165 7086 7164 7086 5347 
7164 7163 7165 2011 2028 2012 2011 7163 2028 
2019 7163 2011 2019 2011 2013 2019 7165 7163 
2024 2023 7086 2024 7086 7165 2024 7165 2019 
2024 2019 2018 7166 5350 2040 7166 5346 5350 
7166 5349 5346 2030 2032 7105 2037 7166 2040 
2037 2031 2030 7167 1994 1993 7167 7166 2037 
7167 1993 5349 7167 5349 7166 7167 7105 1994 
7167 2030 7105 7167 2037 2030 2048 5022 2049 
2048 7168 976 2048 2051 7168 6400 972 7169 
6400 973 972 975 2055 5022 975 2048 976 
975 5022 2048 972 976 7169 975 972 974 
975 974 2056 975 2056 2055 1802 7074 7073 
1802 7073 2062 1803 7074 1802 1803 1804 7076 
1803 7076 7075 1803 7075 7074 1801 1802 2062 
1799 7078 1800 1799 1801 2061 1799 2061 7072 
1799 7072 7078 2075 2080 2076 7170 7061 2080 
7170 2080 2075 2084 2083 7061 2084 7061 7170 
2090 2084 7170 2090 2085 2084 7171 7170 2075 
7171 2074 7073 7171 2075 2074 7171 2090 7170 
7171 7073 2092 7171 2092 2090 1794 1797 2105 
1795 7049 7047 1795 7050 7049 1795 7047 1796 
1792 1794 2109 1793 7045 7050 1793 1792 2111 
1793 2111 7045 1793 7050 1795 2122 2137 2123 
7172 7030 5355 7172 5355 2137 7172 2129 7030 
7172 2137 2122 7173 7029 2130 7173 2130 2129 
7173 2129 7172 7173 2122 2124 7173 2124 7029 
7173 7172 2122 1787 7027 2147 1787 7028 7027 
1790 7022 7024 1790 7024 7028 1790 7028 1787 
1789 5358 2184 1789 2184 1785 1789 2144 5358 
1788 1787 2147 1788 2144 1789 1786 2186 6353 
1786 7022 1790 1786 1785 2186 1786 6353 7022 
28 27 2146 26 5362 2145 26 2145 27 
26 5363 5362 1779 7021 5363 1779 1782 7021 
1779 5363 26 29 28 2149 1775 7019 5365 
1775 2183 7019 1775 1778 2183 1774 2178 1777 
1773 2177 1774 1776 7020 2181 1776 2181 1773 
1776 1775 5365 1776 5365 7020 7174 2206 7007 
7174 7007 2199 2198 7175 7174 2198 7174 2199 
2198 2197 7011 2198 7011 7175 2204 2206 7174 
2204 7174 7175 7176 2212 7003 7176 2204 7175 
7176 7003 2205 7176 2205 2204 2208 7011 2209 
2208 7175 7011 2208 2212 7176 2208 7176 7175 
2227 2224 6999 7177 2227 6999 2229 2235 2230 
2229 2225 2227 2229 2227 7177 2229 7177 2235 
7178 7000 6998 7178 6998 2236 7178 2235 7177 
7178 2236 2235 7179 7177 6999 7179 6999 6995 
7179 6995 888 7179 7000 7178 7179 888 7000 
7179 7178 7177 2252 2249 6989 2254 2250 2252 
7180 2252 6989 7180 2254 2252 7181 6989 6988 
7181 7180 6989 7181 6991 6990 7181 6988 6991 
7182 2254 7180 7182 6994 6996 7182 6996 2255 
7182 2255 2254 7183 7180 7181 7183 7182 7180 
7183 6994 7182 7183 6992 6994 7183 6990 6992 
7183 7181 6990 1770 34 1766 1769 2258 1770 
1771 1767 2300 1768 2262 1769 1768 1771 2268 
1763 163 6981 1763 6981 2272 977 163 1763 
977 979 164 983 1763 2272 1762 978 977 
980 982 1764 1764 6987 2308 1764 982 6987 
1764 2308 978 980 984 981 1762 983 980 
7184 6985 37 7184 37 36 7184 878 2285 
7184 2285 6985 880 36 2281 879 881 2278 
880 7184 36 880 2281 881 880 878 7184 
880 879 878 7185 875 872 875 6983 161 
7185 2286 6984 7185 2296 6983 7185 6984 2296 
7185 6983 875 7185 872 2286 1760 41 45 
1760 45 6979 6979 219 985 6979 985 1760 
42 41 1760 6977 39 869 867 985 868 
2301 867 864 2301 864 2269 871 867 2301 
2303 2310 2309 988 2303 2309 2306 85 195 
2306 988 2309 986 199 987 986 988 2306 
2306 86 85 2306 6976 86 2306 2309 6976 
2332 2364 2333 2332 2334 5796 2332 5796 6533 
2332 6533 2364 22 21 2352 680 682 5211 
681 680 679 23 6968 5371 23 5371 24 
23 679 6968 23 681 679 1745 6526 2357 
1745 6529 6526 1745 1748 6529 1746 1745 2357 
1746 2355 1747 7186 6949 2399 7187 990 989 
7186 2398 6947 7186 2399 2398 989 6949 7186 
7187 6946 6920 7187 6920 990 7187 6947 6946 
7187 7186 6947 7187 989 7186 7188 6942 6944 
7188 6914 6913 7188 6938 6942 7188 6913 6938 
7189 6940 6931 7189 6931 6914 7189 6945 6940 
7189 6914 7188 7189 6944 6945 7189 7188 6944 
1740 2403 1741 1740 1743 2402 845 2409 6916 
845 6916 846 1739 845 842 1742 2409 845 
1742 1741 2411 2447 6903 6902 2447 6902 2448 
2447 2465 6903 2447 2446 2465 1734 6891 6896 
1734 1733 6890 1734 6890 6891 1734 6896 1738 
3005 6884 2481 3005 2470 6884 3005 2481 2480 
3005 2472 2470 7190 2508 6277 7191 2516 2504 
7191 2504 2503 7191 7190 2516 2496 6277 2497 
2496 7190 6277 2496 2500 2516 2496 2516 7190 
7192 2503 6882 7192 6882 2509 7192 7191 2503 
7192 2509 2508 7192 2508 7190 7192 7190 7191 
7193 6878 2520 7193 2520 2519 7193 6881 6878 
7194 2514 6880 7194 2515 2514 7194 6880 6881 
7194 6881 7193 7195 2519 2554 7195 6879 2515 
7195 7193 2519 7195 2515 7194 7195 2554 6879 
7195 7194 7193 2526 2533 2527 2526 2525 2529 
2562 2557 2556 2562 2559 2557 2562 2560 2559 
7196 6772 6784 7196 6784 787 7196 787 2726 
7196 6774 6772 7196 2726 6774 7197 6866 6868 
7197 6868 995 7198 6864 6866 7198 6866 7197 
7199 2588 281 7199 281 2593 992 996 993 
7197 992 2589 2589 7198 7197 2589 2588 7199 
2589 7199 7198 7197 995 992 2592 7199 2593 
2592 7198 7199 2592 6864 7198 2592 2594 6864 
1730 1729 2645 1731 2635 1726 1731 1730 2642 
1728 6849 1729 1728 6863 6853 1728 6853 6849 
1727 1726 2636 1727 2647 6863 1727 6863 1728 
1720 2685 6847 1720 6847 7200 1719 2685 1720 
1722 1721 2649 1722 2657 1719 1714 6845 6844 
1714 1717 2681 1714 2681 6845 997 999 1716 
997 1001 998 1716 169 168 1716 999 169 
1716 168 1717 1713 1000 997 1715 6843 2686 
1715 6844 6843 1715 1714 6844 1715 2686 1000 
2712 2711 6851 1002 1004 2713 2717 2713 2718 
2717 1002 2713 7201 2713 2712 7201 2718 2713 
7202 2712 6851 7202 7201 2712 7202 6851 6850 
7203 827 2683 7203 2682 6820 7203 2683 2682 
7203 6820 2763 7203 2763 2765 7203 2765 827 
7204 5385 2749 7204 6753 2901 7204 2742 6753 
7204 2901 5385 2743 2749 2733 2743 2742 7204 
2743 2733 2732 2743 7204 2749 1705 7205 5534 
1706 5535 2590 1706 2590 1708 1706 1705 5534 
1706 5534 5535 2750 2752 5262 2750 6814 2751 
7206 5392 6814 7206 2750 5262 7206 6814 2750 
7207 7206 5262 7207 5263 5916 7207 5262 5263 
7207 5916 5911 7208 5392 7206 7208 5393 5392 
7208 5910 5393 7208 7207 5911 7208 5911 5910 
7208 7206 7207 7209 6811 6808 7209 5388 4370 
7209 5884 7080 7209 4370 5884 7209 6808 5388 
7209 7080 6811 2672 5400 2673 2672 6803 5400 
2672 2762 6803 2672 2674 2762 1698 6802 2780 
1698 2776 6802 1698 1701 2776 1700 6789 2773 
1700 2773 1701 811 1697 2786 1700 810 6789 
1699 1698 2780 1699 2779 1697 1694 6799 1692 
1694 2815 6799 1693 2815 1694 1690 2787 1691 
1690 1692 2810 1695 2783 1693 1695 1691 2784 
7210 6793 2806 7210 2811 2796 7210 2812 2811 
7210 2796 6793 7211 7210 2806 7211 2806 2805 
7211 812 2812 7211 2812 7210 7211 2805 6790 
7211 6790 812 807 6788 69 69 1005 807 
807 2818 6788 807 806 2819 807 2819 2818 
69 68 1005 1685 2879 1686 1685 2862 6704 
1685 1687 2862 1685 6704 2879 7212 6697 6870 
7212 6700 2863 7212 2863 2868 7212 2870 6697 
7212 2868 2870 7213 6698 6700 7213 6876 6698 
7213 6869 6876 7213 7212 6870 7213 6870 6869 
7213 6700 7212 5251 5252 7214 5251 7214 7215 
2569 5251 7215 2569 2574 5251 6872 835 2570 
6872 7215 7216 6872 7216 836 6872 2569 7215 
6872 2570 2569 7217 6461 2532 7217 3455 6461 
7217 6857 3455 2531 2886 6857 2531 7217 2532 
2531 6857 7217 2531 2530 2886 7218 5994 5995 
7218 6769 6765 7218 5995 6769 7218 5989 5994 
7219 7218 6765 7219 6765 6762 7219 6762 6757 
7219 6757 5983 7219 5989 7218 7219 5983 5989 
2909 2908 6768 2911 2906 2909 7220 2909 6768 
7220 2911 2909 2929 2911 7220 2929 2915 2911 
6752 766 2918 6752 6768 769 6752 7220 6768 
2917 2929 7220 2917 7220 6752 2917 6752 2918 
2917 2919 2929 1674 6748 6746 1674 1672 2925 
1674 2925 6748 1673 6745 2928 1673 6746 6745 
1673 1674 6746 1671 1673 2928 1670 2923 1672 
1670 6755 6754 1670 6754 2923 1669 6755 1670 
1669 6749 6755 1669 2927 6749 1669 1671 2927 
1663 1662 2774 1663 2775 1664 1655 6691 3013 
1655 6694 6691 1656 1655 3013 1660 6694 1655 
1660 6690 6694 1660 3004 6690 1657 3015 6686 
1657 6686 6685 1657 1656 3015 1658 6685 6684 
1658 1657 6685 1658 6684 3006 1659 1658 3006 
1659 3004 1660 1652 1653 2499 1651 3008 1650 
1651 1652 2498 1648 6682 6680 1648 3014 6682 
1648 1650 3014 1649 6680 6677 1649 1648 6680 
1649 6677 6679 1649 6679 1653 3036 3026 6891 
3036 6891 6670 3036 3027 3026 3036 6670 3037 
5219 722 724 5219 6912 722 5219 5218 754 
5219 754 6659 5219 6659 6912 1644 6641 6939 
1644 6939 1643 1644 1645 6651 1644 6651 6641 
1641 2410 1642 1641 1643 2408 1634 2778 1635 
1634 1639 70 1632 6647 6646 1632 1628 2489 
1632 2489 6647 1630 6646 5590 1630 1632 6646 
1631 5588 6645 1631 5590 5588 1631 1630 5590 
1631 6645 1629 5221 6640 5222 5221 3068 3067 
7221 2387 6941 7221 3067 2387 7221 6640 5221 
7221 6941 6638 7221 6638 6640 7221 5221 3067 
3227 5082 6560 3227 3226 5082 3227 6559 3228 
3227 6560 6559 7222 6610 6613 7222 6630 6564 
7222 6554 183 7222 6564 6554 7222 183 6610 
7222 6613 6630 1622 6629 6628 1622 3076 1620 
1622 6628 3076 3078 738 735 738 1620 739 
3078 735 6636 1618 738 3078 1619 6562 6632 
1619 3079 6562 1619 1618 3079 1621 6627 6629 
1621 6632 6627 1621 1619 6632 1621 6629 1622 
7223 3220 6582 7223 6626 6624 7223 6586 6626 
7223 6582 6586 3218 6624 3219 3218 7223 6624 
3218 3220 7223 3215 3214 6609 3215 6611 6612 
3215 6612 6608 3215 6609 6611 3217 6607 6579 
3217 6608 6607 3217 6579 3216 3217 3215 6608 
7224 3114 6587 7224 3115 3114 7224 6576 3115 
7224 3131 3132 7224 6587 3131 7224 3132 6576 
1606 3952 6585 1606 6585 3127 1606 3127 1609 
1608 1609 3125 1607 3122 6589 1607 6589 6592 
1607 1608 3122 1605 3952 1606 1604 3953 1605 
1604 1607 6592 1604 6592 6584 1604 6584 3953 
1598 3128 6581 1598 6581 6578 1602 6577 3204 
1602 6578 6577 1602 1598 6578 1599 3145 1600 
1599 1602 3204 1601 1600 3133 1597 3128 1598 
1597 1601 3129 3163 697 694 3163 694 3158 
7225 3184 6558 7225 6558 3202 7225 3202 698 
7225 698 697 7226 697 3163 7226 3163 3162 
7226 6555 3181 7226 3162 6555 3180 3184 7225 
3180 697 7226 3180 7226 3181 3180 7225 697 
7227 3170 6570 7227 3164 691 7227 6570 3164 
3169 3170 7227 7228 3169 7227 7228 7227 691 
3165 6553 3173 3165 690 6553 3165 3174 7228 
3165 3173 3174 3165 7228 691 78 81 3169 
78 3169 7228 78 7228 3174 78 3174 79 
3188 3187 3194 3188 3183 3182 7229 3194 6552 
7229 3188 3194 7229 3183 3188 3193 6552 850 
3193 7229 6552 3193 3183 7229 3193 3185 3183 
1594 1593 3198 1592 179 1593 1592 684 179 
6572 76 1007 6572 1007 1595 1595 1594 3201 
1595 6557 6572 1595 3201 6557 1008 685 1592 
1008 1007 75 1589 1588 3238 1589 3238 6539 
1589 6532 1590 1589 6539 6532 1586 4485 1587 
1586 1590 4482 7230 6508 6510 7230 6510 3307 
7230 3307 3030 7230 3030 3032 7230 3032 6508 
1582 1581 3261 1582 3263 1584 1583 3325 1579 
1583 1584 3287 1580 5414 6497 1580 1579 5414 
1580 6497 6509 1580 6509 1581 1572 1574 3262 
1575 1577 2454 1575 3276 1574 1573 1572 3260 
1573 6507 6671 1573 3260 6507 1576 6671 6670 
1576 6670 6889 1576 1573 6671 1577 1576 6889 
6500 6501 3318 6500 3282 6501 6500 647 3282 
6500 3285 650 6500 3318 3285 1569 3292 1570 
1565 1570 3294 1568 6282 6281 1568 6281 3290 
1568 3290 1569 1567 646 573 1567 573 6282 
1567 6282 1568 1566 5410 646 1566 3295 5410 
1566 1565 3295 1566 646 1567 1562 5409 1558 
1562 6496 5409 1562 6486 6496 1562 1563 6486 
1559 1558 3297 1559 3296 1560 1555 655 1556 
1554 3317 1555 1011 1556 3322 1553 1012 5413 
1010 1012 1553 1552 1011 1010 1553 3324 1554 
1553 5413 3324 1010 643 639 1535 1534 2260 
1535 2259 1537 7231 5454 3396 7231 6482 3701 
7231 6483 6482 7231 3701 5454 7231 3395 6483 
7231 3396 3395 3443 3466 3444 3443 6278 3466 
3443 6463 6278 3443 3442 6463 1521 2295 6465 
1521 1520 2295 1521 6465 3440 1521 3440 1522 
1525 1522 3441 1523 3469 6473 1523 6473 2274 
1523 1525 3469 1524 1523 2274 1524 2273 1520 
5185 5184 6459 3449 3448 5185 7232 3450 3449 
7232 6860 6477 7232 6862 6860 7232 6477 3450 
7233 7232 3449 7233 6862 7232 7233 5185 6459 
7233 3449 5185 3452 6459 3453 3452 7233 6459 
3452 3456 6862 3452 6862 7233 1515 3465 1516 
1514 5425 3468 1514 3464 1515 1513 6456 5423 
1513 5425 1514 1513 5423 5425 1513 1518 6456 
1511 1509 4089 1511 3889 1506 1510 3473 1508 
1510 1507 3474 1502 3471 5427 1502 6444 1503 
1502 5427 6444 1500 1499 2248 1500 2251 1501 
1504 3471 1502 1504 1501 3472 7234 5428 6455 
7234 3477 6441 7234 6441 5428 7234 6455 6452 
7234 6452 6448 7234 6448 3477 7235 6442 3486 
7235 3486 3485 7235 3485 6445 7235 6446 6443 
7235 6445 6446 7235 6443 6442 1494 1497 2256 
1495 1494 2223 1495 2226 624 14 13 3496 
11 14 3586 11 6435 12 11 6361 6435 
11 3586 6361 1487 1486 6421 1487 6421 6418 
6418 1013 1487 6418 1016 1013 1479 1484 2232 
1480 1479 2231 1480 2231 6430 1480 6430 6431 
1480 6431 1483 7236 6425 3510 7236 3510 6417 
7236 6424 6426 7236 6426 6425 7236 6420 6424 
7236 6417 6420 1476 2237 6410 1476 6410 6407 
1476 6407 1474 1473 1472 3536 1473 3536 6414 
1473 6414 6415 1477 6415 6416 1477 6416 2234 
1477 1473 6415 1475 2237 1476 1475 1477 2234 
5016 5015 3518 5016 3518 6413 5016 6413 3542 
7237 3544 6412 7237 3542 3544 7237 5016 3542 
5017 7237 6412 5017 5016 7237 101 100 6384 
101 6384 3550 7238 6372 3561 7238 3565 6372 
7239 6381 3569 7239 2200 6381 3560 3563 7015 
3560 7238 3561 3560 7015 7240 3560 7240 7238 
3566 7240 7239 3566 7238 7240 3566 7239 3569 
3566 3565 7238 2196 7015 2197 2196 7240 7015 
2196 2200 7239 2196 7239 7240 1459 3568 6380 
1459 1458 3568 1459 6380 6385 1462 3567 1458 
1461 3572 1462 1463 3573 1461 1460 1459 6385 
1460 6385 6383 1460 3579 1463 1460 6383 3579 
7241 96 6379 7241 6379 6378 7241 3581 96 
7241 3582 3581 7242 7241 6378 7242 6378 7001 
7242 7006 7005 7242 7001 7006 7243 6391 6387 
7243 6387 3582 7243 7241 7242 7243 7242 7005 
7243 7005 6391 7243 3582 7241 615 617 3497 
616 615 614 1456 614 6392 1456 6392 2203 
1456 616 614 1455 617 616 1452 1456 2203 
1454 6363 6359 1454 3585 1455 1454 6359 3585 
1453 6364 6363 1453 1452 2202 1453 2202 6364 
1453 6363 1454 7244 3594 6367 7244 3602 3599 
7244 3595 3594 7244 6367 3602 7245 3591 6371 
7245 6370 3591 7245 6371 3595 7245 3595 7244 
7245 3599 6370 7245 7244 3599 1449 2128 1445 
1449 1450 2180 3676 3675 6351 3676 6351 896 
3676 896 6343 3676 6343 3677 1442 3666 883 
1441 589 3668 1441 1440 590 1441 3668 1442 
7246 3525 5449 7246 5449 2150 7246 2150 7026 
620 6357 207 620 7025 6357 620 7246 7026 
620 7026 7025 7246 620 618 7246 618 3525 
608 605 604 6339 602 599 602 6339 6340 
6339 599 6338 602 604 603 602 607 604 
607 611 610 607 610 608 607 6340 612 
607 602 6340 1436 1435 5376 1436 5376 6334 
1436 6334 6332 1436 6332 1438 7247 7043 5102 
7247 2102 7043 7247 3726 2102 7247 5102 3719 
7248 3726 7247 7248 6321 3728 7248 3728 3726 
7248 3721 6321 7248 3719 3721 7248 7247 3719 
1408 3289 1406 1408 1411 3291 1402 1401 3746 
1402 3747 1399 1404 5138 7114 1400 1399 6300 
1400 6300 5136 1400 5136 1404 1403 7122 1401 
1403 7113 7122 1403 1404 7114 1403 7114 7113 
1394 1393 5133 1394 5134 1395 7249 6310 7040 
7249 7053 3797 7249 7040 7046 7249 3797 6310 
7249 7046 7052 7249 7052 7053 585 584 576 
583 584 586 585 587 586 6287 5477 7070 
6287 7070 6286 6287 3781 5477 1372 3578 1373 
1372 1375 3866 7250 6014 6232 7250 6198 6014 
7251 6369 6368 7251 6368 6376 7251 6233 6369 
7251 6376 7250 7251 6232 6233 7251 7250 6232 
7252 7250 6376 7252 3867 6199 7252 6199 6198 
7252 6198 7250 3868 7252 6376 3868 3575 3574 
3868 6376 3575 3868 3867 7252 1365 6230 6231 
1365 6231 6013 1365 5085 6230 1365 1364 5085 
1362 6013 3884 1362 1365 6013 1361 6229 5084 
1361 5084 1364 1363 3885 6262 1363 1362 3885 
1363 6256 6229 1363 6262 6256 1363 6229 1361 
1359 3890 6072 1359 6072 1357 1359 1360 3890 
7253 6221 6217 7253 6217 6220 7253 6220 6219 
7253 4729 6221 7253 4730 4729 7253 6219 4730 
3899 3931 6205 3899 6205 6207 6207 1018 3899 
6207 1021 1018 7254 6195 6010 7254 6196 6194 
7254 6194 6195 7254 6200 6196 7254 6010 6202 
7254 6202 6200 1346 6188 6187 1346 6187 6116 
1346 6116 1345 1342 4763 6189 1342 1341 4763 
1342 6189 6188 1342 6188 1346 1343 6125 6127 
1343 1345 6125 1343 6127 5695 1343 5695 1344 
1337 4603 6184 1337 6184 6616 1338 6616 6185 
1338 6185 3956 1338 1337 6616 1336 1338 3956 
1339 4603 1337 1334 3957 6182 1334 1336 3957 
1334 6182 6179 1335 6179 5733 1335 1334 6179 
1335 5733 4601 1335 4601 1339 7255 6175 6178 
7255 6177 6175 7255 6178 6599 7256 6599 6605 
7256 6173 6111 7256 6111 6114 7256 6114 7255 
7256 6605 6173 7256 7255 6599 7257 6172 3942 
7257 3942 6177 7257 7255 6114 7257 6177 7255 
7257 6114 6172 1331 3954 1332 1331 1330 3947 
1329 6176 6186 1329 6170 6176 1329 1332 6170 
1327 6181 3958 1327 6186 6181 1327 1329 6186 
1328 1327 3958 1328 3946 1330 7258 3971 3970 
7258 6159 536 7258 536 535 7258 3970 6159 
7259 4607 4626 7259 3971 7258 7259 7258 535 
7259 6169 4607 7259 4626 3971 7259 535 6169 
7260 3962 3967 7260 3967 6160 7260 6160 6156 
7260 6163 3962 7260 6156 6155 7260 6155 6163 
524 523 3981 522 524 6152 524 4002 6152 
525 528 527 530 526 527 525 6148 528 
525 6149 6148 6149 522 6152 6149 525 522 
518 521 3996 520 518 517 3990 521 520 
3990 3993 521 520 1023 3990 1026 6142 1027 
520 1026 1023 1026 4003 6142 1026 520 517 
1026 517 4003 7261 6140 5681 7261 6106 6140 
7261 6103 6106 7261 4677 6103 7261 5681 4680 
7261 4680 4677 4077 6080 6086 4077 4079 6080 
7262 6086 6082 7262 6082 4086 7262 4077 6086 
7263 6079 4078 7263 4078 4077 7263 6078 6079 
7263 4077 7262 7264 7263 7262 7264 6078 7263 
7264 6077 6078 7264 4086 4085 7264 4085 6077 
7264 7262 4086 7265 4088 4090 7265 6073 6074 
7265 6074 4088 7266 6076 4099 7266 4090 6076 
7266 7265 4090 7266 4099 4095 7267 7265 7266 
7267 7266 4095 7267 4095 4094 7267 4094 6071 
7267 6073 7265 7267 6071 6073 7268 4112 4115 
7268 6083 6084 7268 4119 6083 7268 6084 4112 
7269 4114 6068 7269 7268 4115 7269 4115 4114 
7269 6068 4120 7269 4120 4119 7269 4119 7268 
7270 5918 4248 7270 4238 5918 7270 6065 4238 
7270 6064 6065 7270 4247 6064 7270 4248 4247 
4131 4134 6208 7271 6139 6122 7271 4051 6139 
7271 6208 4051 7271 4131 6208 7272 6020 4132 
7272 4131 7271 7272 4132 4131 7272 7271 6122 
7272 6001 6020 7272 6122 6001 1317 461 1318 
480 478 479 480 4168 1317 1029 5065 5986 
1029 4167 5065 1029 5954 4167 1029 5986 1030 
4262 4260 4265 5954 1028 4262 4262 5955 5954 
4262 4265 5955 5954 1029 1028 1028 1030 1031 
4182 5985 4183 4182 5984 5985 4182 4172 4171 
4182 4171 5984 1035 5979 4194 1035 5063 5979 
4196 4193 5978 4196 1035 4194 5059 5063 1035 
7273 5987 5976 5059 1034 7273 7273 5976 5060 
7273 5060 5059 7273 1037 5987 1036 5978 4198 
1034 1037 7273 1033 4196 5978 1033 1035 4196 
5059 1035 1034 1033 5978 1036 1033 1036 1034 
4209 5953 5927 4209 5927 5926 4209 5926 4210 
4211 4270 5973 4211 5973 5953 4211 5953 4209 
4211 4204 4270 4211 4206 4204 7274 5931 5930 
7274 5930 5932 7274 4216 4220 7274 5932 4216 
4222 4220 4219 4222 7274 4220 4222 5931 7274 
4222 4223 5931 7275 5929 5928 7275 5937 5929 
7276 465 5944 7276 5944 5935 7276 5937 7275 
7276 5935 5937 463 467 4258 466 463 465 
466 465 7276 466 7276 7275 7277 467 466 
7277 5969 467 7277 5952 5969 7277 466 7275 
7277 5928 5952 7277 7275 5928 7278 4280 4227 
7278 5951 4280 7278 4227 4234 7278 5936 5951 
7279 7278 4234 7279 4234 4233 7279 4233 5933 
7279 5933 5934 7279 5936 7278 7279 5934 5936 
7280 5960 5974 7280 5965 5960 7281 5919 4325 
7281 456 5919 7281 5974 456 7281 7280 5974 
7282 7281 4325 7282 7280 7281 7283 7280 7282 
7283 4291 5966 7283 5966 5965 7283 5965 7280 
4292 7283 7282 4292 4291 7283 4324 7282 4325 
4324 4293 4292 4324 4292 7282 7284 5970 5972 
7284 5972 5963 7285 4256 5968 7285 5968 5970 
7285 5970 7284 7286 7285 7284 7287 5964 5967 
7287 5967 7286 7287 5962 5964 7287 5963 5962 
7287 7284 5963 7287 7286 7284 4284 5967 4285 
4284 7286 5967 4254 7286 4284 4254 4284 4255 
4254 4256 7285 4254 7285 7286 1312 4253 1313 
1311 4259 1312 1314 4261 1311 1309 1313 4252 
1310 1309 4266 1310 4260 1314 7288 5945 4275 
7288 5946 5945 7289 5948 5950 7289 5950 5946 
7289 5946 7288 7290 5939 5943 7290 5948 7289 
7290 5947 5948 7290 5943 5947 7291 5940 5939 
7291 5939 7290 7291 7290 7289 7291 7289 7288 
4274 7288 4275 4274 4276 5940 4274 5940 7291 
4274 7291 7288 7292 5923 5922 7292 5920 5923 
7293 5494 5493 7293 4313 5494 7293 5493 5920 
7293 5920 7292 7294 5921 4386 7294 4386 4317 
7294 5922 5921 7294 7292 5922 4314 7294 4317 
4314 4313 7293 4314 7293 7292 4314 7292 7294 
1307 1306 4283 1304 4290 122 1304 1307 4286 
1305 4288 1306 121 124 4297 121 4297 1305 
433 1041 1038 430 432 4322 433 4322 432 
433 4327 1041 433 1038 4322 433 434 4327 
4330 434 432 1045 5908 5912 1045 5905 5908 
1043 1040 4320 1043 4320 5902 7295 5905 1045 
7295 5904 5905 7295 5902 5904 7295 1043 5902 
438 436 435 438 439 1043 5913 439 435 
438 1045 5912 438 5912 436 7295 1045 1043 
1302 4076 1299 1302 1298 4355 7296 5895 5889 
7296 5889 5878 7296 5878 5880 7296 5896 5895 
4349 7296 5880 4349 5896 7296 4349 5880 4350 
4349 4351 5896 4346 4345 4408 4346 4111 4347 
4346 5898 4111 4346 4408 5898 1292 506 1293 
1292 5897 506 1295 1294 4354 1067 5897 1292 
1067 4339 5897 1290 5888 5050 1290 5050 1288 
1290 5900 5888 1290 1287 5900 7297 413 5818 
7297 5882 5876 7297 5823 5882 7297 5818 5823 
7297 5821 413 7297 5876 5821 2050 1260 1259 
2050 1259 2047 4463 5815 4462 4463 5816 5815 
3672 5816 4463 3672 4463 3673 3672 1047 5816 
1046 1048 960 1046 1047 3672 606 605 1046 
1252 2057 1253 7298 6340 6339 1049 1051 7298 
7298 1051 5450 7298 5450 6340 7298 6339 1254 
1053 2053 1252 1053 1254 5814 1053 5814 2053 
1254 1049 7298 1251 5807 5809 1251 4480 1250 
1251 5809 4480 1249 556 558 1249 558 5807 
1249 5807 1251 1247 556 1249 1246 5803 4468 
1246 4468 1247 1246 5804 5803 1248 5805 5804 
1248 5804 1246 1248 4477 5805 1248 1250 4477 
1243 5801 5802 1243 4478 5801 1239 5791 1240 
1239 5800 5791 1239 5802 5800 1239 1243 5802 
1244 4478 1243 1242 4483 5797 1242 5797 4479 
1242 4479 1244 1241 4483 1242 1241 1240 4484 
5669 7085 5762 5669 7103 7085 5669 5762 5666 
1221 1220 2027 1221 1997 5761 1221 5761 1223 
7299 6090 4526 7299 4525 5755 7299 4092 6090 
7299 4526 4525 4093 4092 7299 4093 7299 5755 
4093 5755 4688 4093 4688 4096 4557 5753 4554 
4557 5751 5753 4557 5752 5751 4557 4558 5752 
7300 6091 4522 7300 5751 4528 7300 4522 4523 
7300 4527 6091 7300 4528 4527 7300 4523 5751 
7301 4539 4538 7301 4538 7094 7301 7094 2021 
7301 2020 5749 7301 2021 2020 7301 5749 4539 
4546 4537 4536 4546 4580 4544 4546 5743 4580 
4546 4536 5743 7302 5746 4555 4551 5744 4552 
4551 4550 5746 4551 5746 7302 7303 4572 5744 
7303 5744 4551 7303 4551 7302 4083 4555 4084 
4083 7302 4555 4118 4572 7303 4118 4117 4572 
4118 4083 4082 4118 7303 7302 4118 7302 4083 
1215 5741 5742 1215 1213 4660 1215 4660 5741 
1216 5740 4589 1216 5742 5740 1216 1215 5742 
1214 1216 4589 1211 1214 4570 1212 5738 4661 
1212 4567 5738 1212 1211 4567 1212 4661 1213 
7304 4560 5735 7304 2004 7090 7304 7090 4560 
7304 5704 2004 7304 4654 5704 7304 5735 4654 
4575 4578 4574 4575 4576 6069 4585 6069 4586 
7305 4578 4575 7305 4575 6069 7305 6069 4585 
4590 4578 7305 4590 4579 4578 4593 4591 4590 
4593 4590 7305 4593 4585 4584 4593 7305 4585 
1208 4760 1207 1054 1057 1055 1054 381 337 
380 381 5009 337 380 339 337 339 338 
336 1056 1054 1204 4605 6167 1204 6167 4602 
1204 4602 402 393 398 394 392 394 5727 
4596 403 401 393 403 398 396 4605 1204 
1206 392 5727 7306 5723 4634 7306 4638 5720 
7306 4630 5723 7306 5720 4630 5721 4634 385 
5721 4639 4638 5721 7306 4634 5721 382 4639 
5721 4638 7306 1200 353 4646 1200 4646 1198 
1200 1202 5708 1200 5708 353 356 4659 5699 
356 4653 4659 356 5699 359 356 358 4653 
4664 358 357 356 359 357 4700 4696 4698 
4700 4698 5655 4700 5655 5677 4700 5677 4701 
4721 4712 4711 4721 5661 4712 4721 4717 4716 
4721 4716 5661 1196 4725 1194 1195 4726 1196 
1195 5663 4733 1191 1194 4728 1191 4736 1192 
1193 5656 5664 1193 1192 5656 1193 5663 1195 
1193 5664 5663 4743 4742 5682 4746 4741 4743 
4750 4747 4746 4750 5689 4749 7307 4750 4746 
7307 4743 5682 7307 4746 4743 7307 5682 5684 
7307 5684 5689 7307 5689 4750 1186 5648 4762 
1186 5649 5648 1188 5649 1186 1188 5651 5649 
1188 4759 5651 345 4759 1188 344 342 341 
4758 345 341 344 5652 342 1189 5653 5652 
1189 4764 5653 1189 5652 344 1187 1186 4762 
1187 4764 1189 1183 4770 1179 1183 5633 4770 
1183 5635 5633 1184 5636 5635 1184 4772 5636 
1184 1182 4772 1184 5635 1183 1181 5641 5640 
1181 4774 1182 1181 5640 4774 1180 4768 5643 
1180 5641 1181 1180 5643 5641 1180 1179 4768 
7308 4814 5630 7308 5630 335 7308 335 4781 
7308 4792 4814 7309 5628 5627 7309 7308 4781 
7309 4781 5628 7309 5627 4793 7309 4793 4792 
7309 4792 7308 4798 4790 4789 4798 1060 4796 
1058 1060 4798 4789 1058 4798 1058 1062 1059 
4789 1061 1058 1176 2358 1174 1176 1173 2356 
1168 1167 4824 1168 4832 1169 1170 2353 1165 
1170 1169 2351 1159 1158 4834 1159 4823 1162 
2329 2328 4986 2329 4986 273 2329 5614 2330 
2329 273 5614 269 267 266 269 5613 267 
1901 270 266 269 270 5605 269 5605 5613 
275 5517 5608 5517 271 5518 275 5608 5601 
7310 6513 6515 7310 325 6513 7310 4826 325 
7310 5601 4826 274 272 271 274 275 5601 
274 5601 7310 5517 275 271 274 7310 6515 
274 6515 272 4836 4835 5523 4836 4830 4829 
7311 672 4831 7311 4831 4830 7311 673 672 
7311 6519 673 7312 4836 5523 7312 4830 4836 
7312 6519 7311 7312 7311 4830 7313 5522 6970 
7313 7312 5523 7313 5523 5522 7313 6520 6519 
7313 6970 6520 7313 6519 7312 1155 6950 1156 
1155 847 6950 1879 7145 4866 1879 949 7145 
1879 4866 293 7314 4864 5589 7314 5589 4857 
7314 4857 4856 7314 4856 5594 7314 4865 4864 
7314 5594 4865 3135 720 3136 3135 3137 5586 
3135 5587 720 3135 5586 5587 4878 4881 4874 
7315 4881 4878 287 4881 7315 287 7315 6666 
287 6666 4879 4881 286 4892 4883 6666 7315 
4883 4887 6666 7316 4883 7315 7316 4877 5581 
7316 7315 4878 7316 4878 4877 7316 5581 4884 
7316 4884 4883 7317 4919 4918 7317 4909 4908 
7317 5564 4919 7317 4908 5564 7318 4922 4968 
7318 7317 4918 7318 4909 7317 7318 4968 5562 
7318 4918 4922 7318 5562 4909 7319 4934 4933 
7320 4933 4942 7320 4930 7319 7320 5563 4938 
7320 7319 4933 7320 4942 5563 7320 4938 4928 
7320 4928 4930 7321 5584 5583 7321 4974 5584 
7321 5583 7147 7321 7147 4859 7322 4975 4974 
7322 4974 7321 7322 5591 4975 7322 4859 4858 
7322 4858 5591 7322 7321 4859 7323 3142 4982 
7323 1873 4980 7323 5585 3142 7323 4980 5585 
7324 1874 1873 7324 1873 7323 7324 7323 4982 
7324 4982 4983 7324 5592 1874 7324 4983 5592 
1140 4997 6439 1140 1139 4997 1140 6439 6440 
1140 6440 1142 7325 6362 5005 7325 5005 5004 
7325 6296 4767 7325 4769 6362 7325 4767 4769 
7325 5004 6296 3748 1950 6296 3748 1951 1950 
3748 6296 6295 3748 6295 3749 251 149 5047 
146 251 250 1137 250 247 1137 244 5051 
240 1137 5051 242 243 447 242 447 147 
242 240 239 5497 243 239 5061 5055 5054 
5061 5054 7326 7327 5980 5491 7327 5062 5061 
7327 5491 5062 7327 5061 7326 5068 5067 5070 
5068 5070 7326 5068 5054 5053 5068 7326 5054 
7328 7327 7326 7328 5981 5980 7328 5980 7327 
7328 5071 5981 7328 7326 5070 7328 5070 5071 
1134 1133 3882 1134 3883 1131 7329 4207 4018 
7329 5701 5739 7329 4018 5701 7329 4244 4207 
7330 4243 4244 7330 5736 5737 7330 7329 5739 
7330 5739 5736 7330 5737 4243 7330 4244 7329 
4113 4109 5869 4113 4110 4109 7331 5869 4412 
7331 4113 5869 4410 7331 4412 4587 6067 4583 
4587 1064 1063 1063 7331 4410 7331 1063 4113 
1063 6067 4587 4236 452 6067 4236 6067 1063 
4236 1063 4410 4236 4410 4237 472 367 366 
472 366 4006 471 3999 367 471 367 472 
471 5975 4000 471 4000 3999 5975 471 468 
5975 468 4218 1118 6303 7048 1118 1123 6303 
1118 7048 7051 1120 5131 1121 1119 7051 6312 
1119 1118 7051 1119 6312 5132 1119 5132 1120 
1122 1121 5139 1122 5137 1123 1116 5456 5455 
1116 5455 5152 1116 5152 1111 1116 1114 5456 
7332 2156 5448 7332 5446 157 7332 201 5446 
7332 5448 201 2154 157 156 2154 156 2155 
2154 7332 157 2154 2156 7332 7333 5431 5435 
7333 5443 5431 7333 6349 5443 7333 5436 5439 
7333 5435 5436 7333 5439 6349 2175 6348 2176 
2175 6349 6348 5175 5443 6349 5175 6349 2175 
5175 2175 2174 5175 5176 5443 7334 3438 6472 
7334 6472 6471 7334 5178 5186 7334 5186 3438 
7335 7334 6471 7335 6471 6457 7335 6457 5424 
7335 5179 5178 7335 5424 5179 7335 5178 7334 
7336 6469 6467 7336 6901 6469 7337 6504 6505 
7337 6982 6504 7338 6466 6980 7338 6982 7337 
7338 6980 6982 7338 6467 6466 7338 7336 6467 
7338 7337 7336 7339 6901 7336 7339 6502 6901 
7339 6503 6502 7339 6505 6503 7339 7337 6505 
7339 7336 7337 7340 5206 5406 7340 6967 5206 
7340 3250 3846 7340 5406 3250 7340 5210 6967 
7340 3846 5210 3195 188 184 5224 5226 6676 
5224 6676 6689 5229 5225 5224 5229 5224 6689 
7341 2479 6643 7341 6643 5230 7341 5230 5229 
7341 6689 2476 7341 2476 2479 7341 5229 6689 
7342 6873 2947 7342 6703 6702 7342 6702 6873 
7342 2947 2984 7342 2984 6706 7342 6706 6703 
5294 2646 59 2670 2613 2612 58 5294 59 
58 2670 2612 7343 58 2612 7343 5294 58 
7343 5295 5294 7343 5377 5295 7343 2616 5377 
7343 2612 2616 7344 2996 6871 7344 6871 840 
2997 5375 5374 2997 5374 2552 2997 7344 5375 
2997 2996 7344 839 7344 840 839 5375 7344 
2501 2506 839 2506 5375 839 2506 2505 5373 
2506 5373 5375 5302 5298 5297 5302 6962 5303 
7345 5368 5367 7345 5370 5368 7346 5302 5297 
7346 6962 5302 7347 5366 6963 7347 6962 7346 
7347 6963 6962 7347 5367 5366 7347 7345 5367 
7347 7346 7345 7348 7346 5297 7348 5299 5372 
7348 5297 5299 7348 5370 7345 7348 5372 5370 
7348 7345 7346 5311 2135 5357 5311 5364 7018 
5311 5357 5364 7349 7018 5360 7349 5311 7018 
7349 5361 5309 7349 5360 5361 7349 5309 5311 
7350 5542 5536 7350 5342 5539 7350 5539 5542 
7350 1850 5342 7350 5538 1850 7350 5536 5538 

CELL_TYPES 14556
5
5
5
5
5
5
5
5
5
5
5
5
5
5
5
5
5
5
5
5
5
5
5
5
5
5
5
5
5
5
5
5
5
5
5
5
5
5
5
5
5
5
5
5
5
5
5
5
5
5
5
5
5
5
5
5
5
5
5
5
5
5
5
5
5
5
5
5
5
5
5
5
5
5
5
5
5
5
5
5
5
5
5
5
5
5
5
5
5
5
5
5
5
5
5
5
5
5
5
5
5
5
5
5
5
5
5
5
5
5
5
5
5
5
5
5
5
5
5
5
5
5
5
5
5
5
5
5
5
5
5
5
5
5
5
5
5
5
5
5
5
5
5
5
5
5
5
5
5
5
5
5
5
5
5
5
5
5
5
5
5
5
5
5
5
5
5
5
5
5
5
5
5
5
5
5
5
5
5
5
5
5
5
5
5
5
5
5
5
5
5
5
5
5
5
5
5
5
5
5
5
5
5
5
5
5
5
5
5
5
5
5
5
5
5
5
5
5
5
5
5
5
5
5
5
5
5
5
5
5
5
5
5
5
5
5
5
5
5
5
5
5
5
5
5
5
5
5
5
5
5
5
5
5
5
5
5
5
5
5
5
5
5
5
5
5
5
5
5
5
5
5
5
5
5
5
5
5
5
5
5
5
5
5
5
5
5
5
5
5
5
5
5
5
5
5
5
5
5
5
5
5
5
5
5
5
5
5
5
5
5
5
5
5
5
5
5
5
5
5
5
5
5
5
5
5
5
5
5
5
5
5
5
5
5
5
5
5
5
5
5
5
5
5
5
5
5
5
5
5
5
5
5
5
5
5
5
5
5
5
5
5
5
5
5
5
5
5
5
5
5
5
5
5
5
5
5
5
5
5
5
5
5
5
5
5
5
5
5
5
5
5
5
5
5
5
5
5
5
5
5
5
5
5
5
5
5
5
5
5
5
5
5
5
5
5
5
5
5
5
5
5
5
5
5
5
5
5
5
5
5
5
5
5
5
5
5
5
5
5
5
5
5
5
5
5
5
5
5
5
5
5
5
5
5
5
5
5
5
5
5
5
5
5
5
5
5
5
5
5
5
5
5
5
5
5
5
5
5
5
5
5
5
5
5
5
5
5
5
5
5
5
5
5
5
5
5
5
5
5
5
5
5
5
5
5
5
5
5
5
5
5
5
5
5
5
5
5
5
5
5
5
5
5
5
5
5
5
5
5
5
5
5
5
5
5
5
5
5
5
5
5
5
5
5
5
5
5
5
5
5
5
5
5
5
5
5
5
5
5
5
5
5
5
5
5
5
5
5
5
5
5
5
5
5
5
5
5
5
5
5
5
5
5
5
5
5
5
5
5
5
5
5
5
5
5
5
5
5
5
5
5
5
5
5
5
5
5
5
5
5
5
5
5
5
5
5
5
5
5
5
5
5
5
5
5
5
5
5
5
5
5
5
5
5
5
5
5
5
5
5
5
5
5
5
5
5
5
5
5
5
5
5
5
5
5
5
5
5
5
5
5
5
5
5
5
5
5
5
5
5
5
5
5
5
5
5
5
5
5
5
5
5
5
5
5
5
5
5
5
5
5
5
5
5
5
5
5
5
5
5
5
5
5
5
5
5
5
5
5
5
5
5
5
5
5
5
5
5
5
5
5
5
5
5
5
5
5
5
5
5
5
5
5
5
5
5
5
5
5
5
5
5
5
5
5
5
5
5
5
5
5
5
5
5
5
5
5
5
5
5
5
5
5
5
5
5
5
5
5
5
5
5
5
5
5
5
5
5
5
5
5
5
5
5
5
5
5
5
5
5
5
5
5
5
5
5
5
5
5
5
5
5
5
5
5
5
5
5
5
5
5
5
5
5
5
5
5
5
5
5
5
5
5
5
5
5
5
5
5
5
5
5
5
5
5
5
5
5
5
5
5
5
5
5
5
5
5
5
5
5
5
5
5
5
5
5
5
5
5
5
5
5
5
5
5
5
5
5
5
5
5
5
5
5
5
5
5
5
5
5
5
5
5
5
5
5
5
5
5
5
5
5
5
5
5
5
5
5
5
5
5
5
5
5
5
5
5
5
5
5
5
5
5
5
5
5
5
5
5
5
5
5
5
5
5
5
5
5
5
5
5
5
5
5
5
5
5
5
5
5
5
5
5
5
5
5
5
5
5
5
5
5
5
5
5
5
5
5
5
5
5
5
5
5
5
5
5
5
5
5
5
5
5
5
5
5
5
5
5
5
5
5
5
5
5
5
5
5
5
5
5
5
5
5
5
5
5
5
5
5
5
5
5
5
5
5
5
5
5
5
5
5
5
5
5
5
5
5
5
5
5
5
5
5
5
5
5
5
5
5
5
5
5
5
5
5
5
5
5
5
5
5
5
5
5
5
5
5
5
5
5
5
5
5
5
5
5
5
5
5
5
5
5
5
5
5
5
5
5
5
5
5
5
5
5
5
5
5
5
5
5
5
5
5
5
5
5
5
5
5
5
5
5
5
5
5
5
5
5
5
5
5
5
5
5
5
5
5
5
5
5
5
5
5
5
5
5
5
5
5
5
5
5
5
5
5
5
5
5
5
5
5
5
5
5
5
5
5
5
5
5
5
5
5
5
5
5
5
5
5
5
5
5
5
5
5
5
5
5
5
5
5
5
5
5
5
5
5
5
5
5
5
5
5
5
5
5
5
5
5
5
5
5
5
5
5
5
5
5
5
5
5
5
5
5
5
5
5
5
5
5
5
5
5
5
5
5
5
5
5
5
5
5
5
5
5
5
5
5
5
5
5
5
5
5
5
5
5
5
5
5
5
5
5
5
5
5
5
5
5
5
5
5
5
5
5
5
5
5
5
5
5
5
5
5
5
5
5
5
5
5
5
5
5
5
5
5
5
5
5
5
5
5
5
5
5
5
5
5
5
5
5
5
5
5
5
5
5
5
5
5
5
5
5
5
5
5
5
5
5
5
5
5
5
5
5
5
5
5
5
5
5
5
5
5
5
5
5
5
5
5
5
5
5
5
5
5
5
5
5
5
5
5
5
5
5
5
5
5
5
5
5
5
5
5
5
5
5
5
5
5
5
5
5
5
5
5
5
5
5
5
5
5
5
5
5
5
5
5
5
5
5
5
5
5
5
5
5
5
5
5
5
5
5
5
5
5
5
5
5
5
5
5
5
5
5
5
5
5
5
5
5
5
5
5
5
5
5
5
5
5
5
5
5
5
5
5
5
5
5
5
5
5
5
5
5
5
5
5
5
5
5
5
5
5
5
5
5
5
5
5
5
5
5
5
5
5
5
5
5
5
5
5
5
5
5
5
5
5
5
5
5
5
5
5
5
5
5
5
5
5
5
5
5
5
5
5
5
5
5
5
5
5
5
5
5
5
5
5
5
5
5
5
5
5
5
5
5
5
5
5
5
5
5
5
5
5
5
5
5
5
5
5
5
5
5
5
5
5
5
5
5
5
5
5
5
5
5
5
5
5
5
5
5
5
5
5
5
5
5
5
5
5
5
5
5
5
5
5
5
5
5
5
5
5
5
5
5
5
5
5
5
5
5
5
5
5
5
5
5
5
5
5
5
5
5
5
5
5
5
5
5
5
5
5
5
5
5
5
5
5
5
5
5
5
5
5
5
5
5
5
5
5
5
5
5
5
5
5
5
5
5
5
5
5
5
5
5
5
5
5
5
5
5
5
5
5
5
5
5
5
5
5
5
5
5
5
5
5
5
5
5
5
5
5
5
5
5
5
5
5
5
5
5
5
5
5
5
5
5
5
5
5
5
5
5
5
5
5
5
5
5
5
5
5
5
5
5
5
5
5
5
5
5
5
5
5
5
5
5
5
5
5
5
5
5
5
5
5
5
5
5
5
5
5
5
5
5
5
5
5
5
5
5
5
5
5
5
5
5
5
5
5
5
5
5
5
5
5
5
5
5
5
5
5
5
5
5
5
5
5
5
5
5
5
5
5
5
5
5
5
5
5
5
5
5
5
5
5
5
5
5
5
5
5
5
5
5
5
5
5
5
5
5
5
5
5
5
5
5
5
5
5
5
5
5
5
5
5
5
5
5
5
5
5
5
5
5
5
5
5
5
5
5
5
5
5
5
5
5
5
5
5
5
5
5
5
5
5
5
5
5
5
5
5
5
5
5
5
5
5
5
5
5
5
5
5
5
5
5
5
5
5
5
5
5
5
5
5
5
5
5
5
5
5
5
5
5
5
5
5
5
5
5
5
5
5
5
5
5
5
5
5
5
5
5
5
5
5
5
5
5
5
5
5
5
5
5
5
5
5
5
5
5
5
5
5
5
5
5
5
5
5
5
5
5
5
5
5
5
5
5
5
5
5
5
5
5
5
5
5
5
5
5
5
5
5
5
5
5
5
5
5
5
5
5
5
5
5
5
5
5
5
5
5
5
5
5
5
5
5
5
5
5
5
5
5
5
5
5
5
5
5
5
5
5
5
5
5
5
5
5
5
5
5
5
5
5
5
5
5
5
5
5
5
5
5
5
5
5
5
5
5
5
5
5
5
5
5
5
5
5
5
5
5
5
5
5
5
5
5
5
5
5
5
5
5
5
5
5
5
5
5
5
5
5
5
5
5
5
5
5
5
5
5
5
5
5
5
5
5
5
5
5
5
5
5
5
5
5
5
5
5
5
5
5
5
5
5
5
5
5
5
5
5
5
5
5
5
5
5
5
5
5
5
5
5
5
5
5
5
5
5
5
5
5
5
5
5
5
5
5
5
5
5
5
5
5
5
5
5
5
5
5
5
5
5
5
5
5
5
5
5
5
5
5
5
5
5
5
5
5
5
5
5
5
5
5
5
5
5
5
5
5
5
5
5
5
5
5
5
5
5
5
5
5
5
5
5
5
5
5
5
5
5
5
5
5
5
5
5
5
5
5
5
5
5
5
5
5
5
5
5
5
5
5
5
5
5
5
5
5
5
5
5
5
5
5
5
5
5
5
5
5
5
5
5
5
5
5
5
5
5
5
5
5
5
5
5
5
5
5
5
5
5
5
5
5
5
5
5
5
5
5
5
5
5
5
5
5
5
5
5
5
5
5
5
5
5
5
5
5
5
5
5
5
5
5
5
5
5
5
5
5
5
5
5
5
5
5
5
5
5
5
5
5
5
5
5
5
5
5
5
5
5
5
5
5
5
5
5
5
5
5
5
5
5
5
5
5
5
5
5
5
5
5
5
5
5
5
5
5
5
5
5
5
5
5
5
5
5
5
5
5
5
5
5
5
5
5
5
5
5
5
5
5
5
5
5
5
5
5
5
5
5
5
5
5
5
5
5
5
5
5
5
5
5
5
5
5
5
5
5
5
5
5
5
5
5
5
5
5
5
5
5
5
5
5
5
5
5
5
5
5
5
5
5
5
5
5
5
5
5
5
5
5
5
5
5
5
5
5
5
5
5
5
5
5
5
5
5
5
5
5
5
5
5
5
5
5
5
5
5
5
5
5
5
5
5
5
5
5
5
5
5
5
5
5
5
5
5
5
5
5
5
5
5
5
5
5
5
5
5
5
5
5
5
5
5
5
5
5
5
5
5
5
5
5
5
5
5
5
5
5
5
5
5
5
5
5
5
5
5
5
5
5
5
5
5
5
5
5
5
5
5
5
5
5
5
5
5
5
5
5
5
5
5
5
5
5
5
5
5
5
5
5
5
5
5
5
5
5
5
5
5
5
5
5
5
5
5
5
5
5
5
5
5
5
5
5
5
5
5
5
5
5
5
5
5
5
5
5
5
5
5
5
5
5
5
5
5
5
5
5
5
5
5
5
5
5
5
5
5
5
5
5
5
5
5
5
5
5
5
5
5
5
5
5
5
5
5
5
5
5
5
5
5
5
5
5
5
5
5
5
5
5
5
5
5
5
5
5
5
5
5
5
5
5
5
5
5
5
5
5
5
5
5
5
5
5
5
5
5
5
5
5
5
5
5
5
5
5
5
5
5
5
5
5
5
5
5
5
5
5
5
5
5
5
5
5
5
5
5
5
5
5
5
5
5
5
5
5
5
5
5
5
5
5
5
5
5
5
5
5
5
5
5
5
5
5
5
5
5
5
5
5
5
5
5
5
5
5
5
5
5
5
5
5
5
5
5
5
5
5
5
5
5
5
5
5
5
5
5
5
5
5
5
5
5
5
5
5
5
5
5
5
5
5
5
5
5
5
5
5
5
5
5
5
5
5
5
5
5
5
5
5
5
5
5
5
5
5
5
5
5
5
5
5
5
5
5
5
5
5
5
5
5
5
5
5
5
5
5
5
5
5
5
5
5
5
5
5
5
5
5
5
5
5
5
5
5
5
5
5
5
5
5
5
5
5
5
5
5
5
5
5
5
5
5
5
5
5
5
5
5
5
5
5
5
5
5
5
5
5
5
5
5
5
5
5
5
5
5
5
5
5
5
5
5
5
5
5
5
5
5
5
5
5
5
5
5
5
5
5
5
5
5
5
5
5
5
5
5
5
5
5
5
5
5
5
5
5
5
5
5
5
5
5
5
5
5
5
5
5
5
5
5
5
5
5
5
5
5
5
5
5
5
5
5
5
5
5
5
5
5
5
5
5
5
5
5
5
5
5
5
5
5
5
5
5
5
5
5
5
5
5
5
5
5
5
5
5
5
5
5
5
5
5
5
5
5
5
5
5
5
5
5
5
5
5
5
5
5
5
5
5
5
5
5
5
5
5
5
5
5
5
5
5
5
5
5
5
5
5
5
5
5
5
5
5
5
5
5
5
5
5
5
5
5
5
5
5
5
5
5
5
5
5
5
5
5
5
5
5
5
5
5
5
5
5
5
5
5
5
5
5
5
5
5
5
5
5
5
5
5
5
5
5
5
5
5
5
5
5
5
5
5
5
5
5
5
5
5
5
5
5
5
5
5
5
5
5
5
5
5
5
5
5
5
5
5
5
5
5
5
5
5
5
5
5
5
5
5
5
5
5
5
5
5
5
5
5
5
5
5
5
5
5
5
5
5
5
5
5
5
5
5
5
5
5
5
5
5
5
5
5
5
5
5
5
5
5
5
5
5
5
5
5
5
5
5
5
5
5
5
5
5
5
5
5
5
5
5
5
5
5
5
5
5
5
5
5
5
5
5
5
5
5
5
5
5
5
5
5
5
5
5
5
5
5
5
5
5
5
5
5
5
5
5
5
5
5
5
5
5
5
5
5
5
5
5
5
5
5
5
5
5
5
5
5
5
5
5
5
5
5
5
5
5
5
5
5
5
5
5
5
5
5
5
5
5
5
5
5
5
5
5
5
5
5
5
5
5
5
5
5
5
5
5
5
5
5
5
5
5
5
5
5
5
5
5
5
5
5
5
5
5
5
5
5
5
5
5
5
5
5
5
5
5
5
5
5
5
5
5
5
5
5
5
5
5
5
5
5
5
5
5
5
5
5
5
5
5
5
5
5
5
5
5
5
5
5
5
5
5
5
5
5
5
5
5
5
5
5
5
5
5
5
5
5
5
5
5
5
5
5
5
5
5
5
5
5
5
5
5
5
5
5
5
5
5
5
5
5
5
5
5
5
5
5
5
5
5
5
5
5
5
5
5
5
5
5
5
5
5
5
5
5
5
5
5
5
5
5
5
5
5
5
5
5
5
5
5
5
5
5
5
5
5
5
5
5
5
5
5
5
5
5
5
5
5
5
5
5
5
5
5
5
5
5
5
5
5
5
5
5
5
5
5
5
5
5
5
5
5
5
5
5
5
5
5
5
5
5
5
5
5
5
5
5
5
5
5
5
5
5
5
5
5
5
5
5
5
5
5
5
5
5
5
5
5
5
5
5
5
5
5
5
5
5
5
5
5
5
5
5
5
5
5
5
5
5
5
5
5
5
5
5
5
5
5
5
5
5
5
5
5
5
5
5
5
5
5
5
5
5
5
5
5
5
5
5
5
5
5
5
5
5
5
5
5
5
5
5
5
5
5
5
5
5
5
5
5
5
5
5
5
5
5
5
5
5
5
5
5
5
5
5
5
5
5
5
5
5
5
5
5
5
5
5
5
5
5
5
5
5
5
5
5
5
5
5
5
5
5
5
5
5
5
5
5
5
5
5
5
5
5
5
5
5
5
5
5
5
5
5
5
5
5
5
5
5
5
5
5
5
5
5
5
5
5
5
5
5
5
5
5
5
5
5
5
5
5
5
5
5
5
5
5
5
5
5
5
5
5
5
5
5
5
5
5
5
5
5
5
5
5
5
5
5
5
5
5
5
5
5
5
5
5
5
5
5
5
5
5
5
5
5
5
5
5
5
5
5
5
5
5
5
5
5
5
5
5
5
5
5
5
5
5
5
5
5
5
5
5
5
5
5
5
5
5
5
5
5
5
5
5
5
5
5
5
5
5
5
5
5
5
5
5
5
5
5
5
5
5
5
5
5
5
5
5
5
5
5
5
5
5
5
5
5
5
5
5
5
5
5
5
5
5
5
5
5
5
5
5
5
5
5
5
5
5
5
5
5
5
5
5
5
5
5
5
5
5
5
5
5
5
5
5
5
5
5
5
5
5
5
5
5
5
5
5
5
5
5
5
5
5
5
5
5
5
5
5
5
5
5
5
5
5
5
5
5
5
5
5
5
5
5
5
5
5
5
5
5
5
5
5
5
5
5
5
5
5
5
5
5
5
5
5
5
5
5
5
5
5
5
5
5
5
5
5
5
5
5
5
5
5
5
5
5
5
5
5
5
5
5
5
5
5
5
5
5
5
5
5
5
5
5
5
5
5
5
5
5
5
5
5
5
5
5
5
5
5
5
5
5
5
5
5
5
5
5
5
5
5
5
5
5
5
5
5
5
5
5
5
5
5
5
5
5
5
5
5
5
5
5
5
5
5
5
5
5
5
5
5
5
5
5
5
5
5
5
5
5
5
5
5
5
5
5
5
5
5
5
5
5
5
5
5
5
5
5
5
5
5
5
5
5
5
5
5
5
5
5
5
5
5
5
5
5
5
5
5
5
5
5
5
5
5
5
5
5
5
5
5
5
5
5
5
5
5
5
5
5
5
5
5
5
5
5
5
5
5
5
5
5
5
5
5
5
5
5
5
5
5
5
5
5
5
5
5
5
5
5
5
5
5
5
5
5
5
5
5
5
5
5
5
5
5
5
5
5
5
5
5
5
5
5
5
5
5
5
5
5
5
5
5
5
5
5
5
5
5
5
5
5
5
5
5
5
5
5
5
5
5
5
5
5
5
5
5
5
5
5
5
5
5
5
5
5
5
5
5
5
5
5
5
5
5
5
5
5
5
5
5
5
5
5
5
5
5
5
5
5
5
5
5
5
5
5
5
5
5
5
5
5
5
5
5
5
5
5
5
5
5
5
5
5
5
5
5
5
5
5
5
5
5
5
5
5
5
5
5
5
5
5
5
5
5
5
5
5
5
5
5
5
5
5
5
5
5
5
5
5
5
5
5
5
5
5
5
5
5
5
5
5
5
5
5
5
5
5
5
5
5
5
5
5
5
5
5
5
5
5
5
5
5
5
5
5
5
5
5
5
5
5
5
5
5
5
5
5
5
5
5
5
5
5
5
5
5
5
5
5
5
5
5
5
5
5
5
5
5
5
5
5
5
5
5
5
5
5
5
5
5
5
5
5
5
5
5
5
5
5
5
5
5
5
5
5
5
5
5
5
5
5
5
5
5
5
5
5
5
5
5
5
5
5
5
5
5
5
5
5
5
5
5
5
5
5
5
5
5
5
5
5
5
5
5
5
5
5
5
5
5
5
5
5
5
5
5
5
5
5
5
5
5
5
5
5
5
5
5
5
5
5
5
5
5
5
5
5
5
5
5
5
5
5
5
5
5
5
5
5
5
5
5
5
5
5
5
5
5
5
5
5
5
5
5
5
5
5
5
5
5
5
5
5
5
5
5
5
5
5
5
5
5
5
5
5
5
5
5
5
5
5
5
5
5
5
5
5
5
5
5
5
5
5
5
5
5
5
5
5
5
5
5
5
5
5
5
5
5
5
5
5
5
5
5
5
5
5
5
5
5
5
5
5
5
5
5
5
5
5
5
5
5
5
5
5
5
5
5
5
5
5
5
5
5
5
5
5
5
5
5
5
5
5
5
5
5
5
5
5
5
5
5
5
5
5
5
5
5
5
5
5
5
5
5
5
5
5
5
5
5
5
5
5
5
5
5
5
5
5
5
5
5
5
5
5
5
5
5
5
5
5
5
5
5
5
5
5
5
5
5
5
5
5
5
5
5
5
5
5
5
5
5
5
5
5
5
5
5
5
5
5
5
5
5
5
5
5
5
5
5
5
5
5
5
5
5
5
5
5
5
5
5
5
5
5
5
5
5
5
5
5
5
5
5
5
5
5
5
5
5
5
5
5
5
5
5
5
5
5
5
5
5
5
5
5
5
5
5
5
5
5
5
5
5
5
5
5
5
5
5
5
5
5
5
5
5
5
5
5
5
5
5
5
5
5
5
5
5
5
5
5
5
5
5
5
5
5
5
5
5
5
5
5
5
5
5
5
5
5
5
5
5
5
5
5
5
5
5
5
5
5
5
5
5
5
5
5
5
5
5
5
5
5
5
5
5
5
5
5
5
5
5
5
5
5
5
5
5
5
5
5
5
5
5
5
5
5
5
5
5
5
5
5
5
5
5
5
5
5
5
5
5
5
5
5
5
5
5
5
5
5
5
5
5
5
5
5
5
5
5
5
5
5
5
5
5
5
5
5
5
5
5
5
5
5
5
5
5
5
5
5
5
5
5
5
5
5
5
5
5
5
5
5
5
5
5
5
5
5
5
5
5
5
5
5
5
5
5
5
5
5
5
5
5
5
5
5
5
5
5
5
5
5
5
5
5
5
5
5
5
5
5
5
5
5
5
5
5
5
5
5
5
5
5
5
5
5
5
5
5
5
5
5
5
5
5
5
5
5
5
5
5
5
5
5
5
5
5
5
5
5
5
5
5
5
5
5
5
5
5
5
5
5
5
5
5
5
5
5
5
5
5
5
5
5
5
5
5
5
5
5
5
5
5
5
5
5
5
5
5
5
5
5
5
5
5
5
5
5
5
5
5
5
5
5
5
5
5
5
5
5
5
5
5
5
5
5
5
5
5
5
5
5
5
5
5
5
5
5
5
5
5
5
5
5
5
5
5
5
5
5
5
5
5
5
5
5
5
5
5
5
5
5
5
5
5
5
5
5
5
5
5
5
5
5
5
5
5
5
5
5
5
5
5
5
5
5
5
5
5
5
5
5
5
5
5
5
5
5
5
5
5
5
5
5
5
5
5
5
5
5
5
5
5
5
5
5
5
5
5
5
5
5
5
5
5
5
5
5
5
5
5
5
5
5
5
5
5
5
5
5
5
5
5
5
5
5
5
5
5
5
5
5
5
5
5
5
5
5
5
5
5
5
5
5
5
5
5
5
5
5
5
5
5
5
5
5
5
5
5
5
5
5
5
5
5
5
5
5
5
5
5
5
5
5
5
5
5
5
5
5
5
5
5
5
5
5
5
5
5
5
5
5
5
5
5
5
5
5
5
5
5
5
5
5
5
5
5
5
5
5
5
5
5
5
5
5
5
5
5
5
5
5
5
5
5
5
5
5
5
5
5
5
5
5
5
5
5
5
5
5
5
5
5
5
5
5
5
5
5
5
5
5
5
5
5
5
5
5
5
5
5
5
5
5
5
5
5
5
5
5
5
5
5
5
5
5
5
5
5
5
5
5
5
5
5
5
5
5
5
5
5
5
5
5
5
5
5
5
5
5
5
5
5
5
5
5
5
5
5
5
5
5
5
5
5
5
5
5
5
5
5
5
5
5
5
5
5
5
5
5
5
5
5
5
5
5
5
5
5
5
5
5
5
5
5
5
5
5
5
5
5
5
5
5
5
5
5
5
5
5
5
5
5
5
5
5
5
5
5
5
5
5
5
5
5
5
5
5
5
5
5
5
5
5
5
5
5
5
5
5
5
5
5
5
5
5
5
5
5
5
5
5
5
5
5
5
5
5
5
5
5
5
5
5
5
5
5
5
5
5
5
5
5
5
5
5
5
5
5
5
5
5
5
5
5
5
5
5
5
5
5
5
5
5
5
5
5
5
5
5
5
5
5
5
5
5
5
5
5
5
5
5
5
5
5
5
5
5
5
5
5
5
5
5
5
5
5
5
5
5
5
5
5
5
5
5
5
5
5
5
5
5
5
5
5
5
5
5
5
5
5
5
5
5
5
5
5
5
5
5
5
5
5
5
5
5
5
5
5
5
5
5
5
5
5
5
5
5
5
5
5
5
5
5
5
5
5
5
5
5
5
5
5
5
5
5
5
5
5
5
5
5
5
5
5
5
5
5
5
5
5
5
5
5
5
5
5
5
5
5
5
5
5
5
5
5
5
5
5
5
5
5
5
5
5
5
5
5
5
5
5
5
5
5
5
5
5
5
5
5
5
5
5
5
5
5
5
5
5
5
5
5
5
5
5
5
5
5
5
5
5
5
5
5
5
5
5
5
5
5
5
5
5
5
5
5
5
5
5
5
5
5
5
5
5
5
5
5
5
5
5
5
5
5
5
5
5
5
5
5
5
5
5
5
5
5
5
5
5
5
5
5
5
5
5
5
5
5
5
5
5
5
5
5
5
5
5
5
5
5
5
5
5
5
5
5
5
5
5
5
5
5
5
5
5
5
5
5
5
5
5
5
5
5
5
5
5
5
5
5
5
5
5
5
5
5
5
5
5
5
5
5
5
5
5
5
5
5
5
5
5
5
5
5
5
5
5
5
5
5
5
5
5
5
5
5
5
5
5
5
5
5
5
5
5
5
5
5
5
5
5
5
5
5
5
5
5
5
5
5
5
5
5
5
5
5
5
5
5
5
5
5
5
5
5
5
5
5
5
5
5
5
5
5
5
5
5
5
5
5
5
5
5
5
5
5
5
5
5
5
5
5
5
5
5
5
5
5
5
5
5
5
5
5
5
5
5
5
5
5
5
5
5
5
5
5
5
5
5
5
5
5
5
5
5
5
5
5
5
5
5
5
5
5
5
5
5
5
5
5
5
5
5
5
5
5
5
5
5
5
5
5
5
5
5
5
5
5
5
5
5
5
5
5
5
5
5
5
5
5
5
5
5
5
5
5
5
5
5
5
5
5
5
5
5
5
5
5
5
5
5
5
5
5
5
5
5
5
5
5
5
5
5
5
5
5
5
5
5
5
5
5
5
5
5
5
5
5
5
5
5
5
5
5
5
5
5
5
5
5
5
5
5
5
5
5
5
5
5
5
5
5
5
5
5
5
5
5
5
5
5
5
5
5
5
5
5
5
5
5
5
5
5
5
5
5
5
5
5
5
5
5
5
5
5
5
5
5
5
5
5
5
5
5
5
5
5
5
5
5
5
5
5
5
5
5
5
5
5
5
5
5
5
5
5
5
5
5
5
5
5
5
5
5
5
5
5
5
5
5
5
5
5
5
5
5
5
5
5
5
5
5
5
5
5
5
5
5
5
5
5
5
5
5
5
5
5
5
5
5
5
5
5
5
5
5
5
5
5
5
5
5
5
5
5
5
5
5
5
5
5
5
5
5
5
5
5
5
5
5
5
5
5
5
5
5
5
5
5
5
5
5
5
5
5
5
5
5
5
5
5
5
5
5
5
5
5
5
5
5
5
5
5
5
5
5
5
5
5
5
5
5
5
5
5
5
5
5
5
5
5
5
5
5
5
5
5
5
5
5
5
5
5
5
5
5
5
5
5
5
5
5
5
5
5
5
5
5
5
5
5
5
5
5
5
5
5
5
5
5
5
5
5
5
5
5
5
5
5
5
5
5
5
5
5
5
5
5
5
5
5
5
5
5
5
5
5
5
5
5
5
5
5
5
5
5
5
5
5
5
5
5
5
5
5
5
5
5
5
5
5
5
5
5
5
5
5
5
5
5
5
5
5
5
5
5
5
5
5
5
5
5
5
5
5
5
5
5
5
5
5
5
5
5
5
5
5
5
5
5
5
5
5
5
5
5
5
5
5
5
5
5
5
5
5
5
5
5
5
5
5
5
5
5
5
5
5
5
5
5
5
5
5
5
5
5
5
5
5
5
5
5
5
5
5
5
5
5
5
5
5
5
5
5
5
5
5
5
5
5
5
5
5
5
5
5
5
5
5
5
5
5
5
5
5
5
5
5
5
5
5
5
5
5
5
5
5
5
5
5
5
5
5
5
5
5
5
5
5
5
5
5
5
5
5
5
5
5
5
5
5
5
5
5
5
5
5
5
5
5
5
5
5
5
5
5
5
5
5
5
5
5
5
5
5
5
5
5
5
5
5
5
5
5
5
5
5
5
5
5
5
5
5
5
5
5
5
5
5
5
5
5
5
5
5
5
5
5
5
5
5
5
5
5
5
5
5
5
5
5
5
5
5
5
5
5
5
5
5
5
5
5
5
5
5
5
5
5
5
5
5
5
5
5
5
5
5
5
5
5
5
5
5
5
5
5
5
5
5
5
5
5
5
5
5
5
5
5
5
5
5
5
5
5
5
5
5
5
5
5
5
5
5
5
5
5
5
5
5
5
5
5
5
5
5
5
5
5
5
5
5
5
5
5
5
5
5
5
5
5
5
5
5
5
5
5
5
5
5
5
5
5
5
5
5
5
5
5
5
5
5
5
5
5
5
5
5
5
5
5
5
5
5
5
5
5
5
5
5
5
5
5
5
5
5
5
5
5
5
5
5
5
5
5
5
5
5
5
5
5
5
5
5
5
5
5
5
5
5
5
5
5
5
5
5
5
5
5
5
5
5
5
5
5
5
5
5
5
5
5
5
5
5
5
5
5
5
5
5
5
5
5
5
5
5
5
5
5
5
5
5
5
5
5
5
5
5
5
5
5
5
5
5
5
5
5
5
5
5
5
5
5
5
5
5
5
5
5
5
5
5
5
5
5
5
5
5
5
5
5
5
5
5
5
5
5
5
5
5
5
5
5
5
5
5
5
5
5
5
5
5
5
5
5
5
5
5
5
5
5
5
5
5
5
5
5
5
5
5
5
5
5
5
5
5
5
5
5
5
5
5
5
5
5
5
5
5
5
5
5
5
5
5
5
5
5
5
5
5
5
5
5
5
5
5
5
5
5
5
5
5
5
5
5
5
5
5
5
5
5
5
5
5
5
5
5
5
5
5
5
5
5
5
5
5
5
5
5
5
5
5
5
5
5
5
5
5
5
5
5
5
5
5
5
5
5
5
5
5
5
5
5
5
5
5
5
5
5
5
5
5
5
5
5
5
5
5
5
5
5
5
5
5
5
5
5
5
5
5
5
5
5
5
5
5
5
5
5
5
5
5
5
5
5
5
5
5
5
5
5
5
5
5
5
5
5
5
5
5
5
5
5
5
5
5
5
5
5
5
5
5
5
5
5
5
5
5
5
5
5
5
5
5
5
5
5
5
5
5
5
5
5
5
5
5
5
5
5
5
5
5
5
5
5
5
5
5
5
5
5
5
5
5
5
5
5
5
5
5
5
5
5
5
5
5
5
5
5
5
5
5
5
5
5
5
5
5
5
5
5
5
5
5
5
5
5
5
5
5
5
5
5
5
5
5
5
5
5
5
5
5
5
5
5
5
5
5
5
5
5
5
5
5
5
5
5
5
5
5
5
5
5
5
5
5
5
5
5
5
5
5
5
5
5
5
5
5
5
5
5
5
5
5
5
5
5
5
5
5
5
5
5
5
5
5
5
5
5
5
5
5
5
5
5
5
5
5
5
5
5
5
5
5
5
5
5
5
5
5
5
5
5
5
5
5
5
5
5
5
5
5
5
5
5
5
5
5
5
5
5
5
5
5
5
5
5
5
5
5
5
5
5
5
5
5
5
5
5
5
5
5
5
5
5
5
5
5
5
5
5
5
5
5
5
5
5
5
5
5
5
5
5
5
5
5
5
5
5
5
5
5
5
5
5
5
5
5
5
5
5
5
5
5
5
5
5
5
5
5
5
5
5
5
5
5
5
5
5
5
5
5
5
5
5
5
5
5
5
5
5
5
5
5
5
5
5
5
5
5
5
5
5
5
5
5
5
5
5
5
5
5
5
5
5
5
5
5
5
5
5
5
5
5
5
5
5
5
5
5
5
5
5
5
5
5
5
5
5
5
5
5
5
5
5
5
5
5
5
5
5
5
5
5
5
5
5
5
5
5
5
5
5
5
5
5
5
5
5
5
5
5
5
5
5
5
5
5
5
5
5
5
5
5
5
5
5
5
5
5
5
5
5
5
5
5
5
5
5
5
5
5
5
5
5
5
5
5
5
5
5
5
5
5
5
5
5
5
5
5
5
5
5
5
5
5
5
5
5
5
5
5
5
5
5
5
5
5
5
5
5
5
5
5
5
5
5
5
5
5
5
5
5
5
5
5
5
5
5
5
5
5
5
5
5
5
5
5
5
5
5
5
5
5
5
5
5
5
5
5
5
5
5
5
5
5
5
5
5
5
5
5
5
5
5
5
5
5
5
5
5
5
5
5
5
5
5
5
5
5
5
5
5
5
5
5
5
5
5
5
5
5
5
5
5
5
5
5
5
5
5
5
5
5
5
5
5
5
5
5
5
5
5
5
5
5
5
5
5
5
5
5
5
5
5
5
5
5
5
5
5
5
5
5
5
5
5
5
5
5
5
5
5
5
5
5
5
5
5
5
5
5
5
5
5
5
5
5
5
5
5
5
5
5
5
5
5
5
5
5
5
5
5
5
5
5
5
5
5
5
5
5
5
5
5
5
5
5
5
5
5
5
5
5
5
5
5
5
5
5
5
5
5
5
5
5
5
5
5
5
5
5
5
5
5
5
5
5
5
5
5
5
5
5
5
5
5
5
5
5
5
5
5
5
5
5
5
5
5
5
5
5
5
5
5
5
5
5
5
5
5
5
5
5
5
5
5
5
5
5
5
5
5
5
5
5
5
5
5
5
5
5
5
5
5
5
5
5
5
5
5
5
5
5
5
5
5
5
5
5
5
5
5
5
5
5
5
5
5
5
5
5
5
5
5
5
5
5
5
5
5
5
5
5
5
5
5
5
5
5
5
5
5
5
5
5
5
5
5
5
5
5
5
5
5
5
5
5
5
5
5
5
5
5
5
5
5
5
5
5
5
5
5
5
5
5
5
5
5
5
5
5
5
5
5
5
5
5
5
5
5
5
5
5
5
5
5
5
5
5
5
5
5
5
5
5
5
5
5
5
5
5
5
5
5
5
5
5
5
5
5
5
5
5
5
5
5
5
5
5
5
5
5
5
5
5
5
5
5
5
5
5
5
5
5
5
5
5
5
5
5
5
5
5
5
5
5
5
5
5
5
5
5
5
5
5
5
5
5
5
5
5
5
5
5
5
5
5
5
5
5
5
5
5
5
5
5
5
5
5
5
5
5
5
5
5
5
5
5
5
5
5
5
5
5
5
5
5
5
5
5
5
5
5
5
5
5
5
5
5
5
5
5
5
5
5
5
5
5
5
5
5
5
5
5
5
5
5
5
5
5
5
5
5
5
5
5
5
5
5
5
5
5
5
5
5
5
5
5
5
5
5
5
5
5
5
5
5
5
5
5
5
5
5
5
5
5
5
5
5
5
5
5
5
5
5
5
5
5
5
5
5
5
5
5
5
5
5
5
5
5
5
5
5
5
5
5
5
5
5
5
5
5
5
5
5
5
5
5
5
5
5
5
5
5
5
5
5
5
5
5
5
5
5
5
5
5
5
5
5
5
5
5
5
5
5
5
5
5
5
5
5
5
5
5
5
5
5
5
5
5
5
5
5
5
5
5
5
5
5
5
5
5
5
5
5
5
5
5
5
5
5
5
5
5
5
5
5
5
5
5
5
5
5
5
5
5
5
5
5
5
5
5
5
5
5
5
5
5
5
5
5
5
5
5
5
5
5
5
5
5
5
5
5
5
5
5
5
5
5
5
5
5
5
5
5
5
5
5
5
5
5
5
5
5
5
5
5
5
5
5
5
5
5
5
5
5
5
5
5
5
5
5
5
5
5
5
5
5
5
5
5
5
5
5
5
5
5
5
5
5
5
5
5
5
5
5
5
5
5
5
5
5
5
5
5
5
5
5
5
5
5
5
5
5
5
5
5
5
5
5
5
5
5
5
5
5
5
5
5
5
5
5
5
5
5
5
5
5
5
5
5
5
5
5
5
5
5
5
5
5
5
5
5
5
5
5
5
5
5
5
5
5
5
5
5
5
5
5
5
5
5
5
5
5
5
5
5
5
5
5
5
5
5
5
5
5
5
5
5
5
5
5
5
5
5
5
5
5
5
5
5
5
5
5
5
5
5
5
5
5
5
5
5
5
5
5
5
5
5
5
5
5
5
5
5
5
5
5
5
5
5
5
5
5
5
5
5
5
5
5
5
5
5
5
5
5
5
5
5
5
5
5
5
5
5
5
5
5
5
5
5
5
5
5
5
5
5
5
5
5
5
5
5
5
5
5
5
5
5
5
5
5
5
5
5
5
5
5
5
5
5
5
5
5
5
5
5
5
5
5
5
5
5
5
5
5
5
5
5
5
5
5
5
5
5
5
5
5
5
5
5
5
5
5
5
5
5
5
5
5
5
5
5
5
5
5
5
5
5
5
5
5
5
5
5
5
5
5
5
5
5
5
5
5
5
5
5
5
5
5
5
5
5
5
5
5
5
5
5
5
5
5
5
5
5
5
5
5
5
5
5
5
5
5
5
5
5
5
5
5
5
5
5
5
5
5
5
5
5
5
5
5
5
5
5
5
5
5
5
5
5
5
5
5
5
5
5
5
5
5
5
5
5
5
5
5
5
5
5
5
5
5
5
5
5
5
5
5
5
5
5
5
5
5
5
5
5
5
5
5
5
5
5
5
5
5
5
5
5
5
5
5
5
5
5
5
5
5
5
5
5
5
5
5
5
5
5
5
5
5
5
5
5
5
5
5
5
5
5
5
5
5
5
5
5
5
5
5
5
5
5
5
5
5
5
5
5
5
5
5
5
5
5
5
5
5
5
5
5
5
5
5
5
5
5
5
5
5
5
5
5
5
5
5
5
5
5
5
5
5
5
5
5
5
5
5
5
5
5
5
5
5
5
5
5
5
5
5
5
5
5
5
5
5
5
5
5
5
5
5
5
5
5
5
5
5
5
5
5
5
5
5
5
5
5
5
5
5
5
5
5
5
5
5
5
5
5
5
5
5
5
5
5
5
5
5
5
5
5
5
5
5
5
5
5
5
5
5
5
5
5
5
5
5
5
5
5
5
5
5
5
5
5
5
5
5
5
5
5
5
5
5
5
5
5
5
5
5
5
5
5
5
5
5
5
5
5
5
5
5
5
5
5
5
5
5
5
5
5
5
5
5
5
5
5
5
5
5
5
5
5
5
5
5
5
5
5
5
5
5
5
5
5
5
5
5
5
5
5
5
5
5
5
5
5
5
5
5
5
5
5
5
5
5
5
5
5
5
5
5
5
5
5
5
5
5
5
5
5
5
5
5
5
5
5
5
5
5
5
5
5
5
5
5
5
5
5
5
5
5
5
5
5
5
5
5
5
5
5
5
5
5
5
5
5
5
5
5
5
5
5
5
5
5
5
5
5
5
5
5
5
5
5
5
5
5
5
5
5
5
5
5
5
5
5
5
5
5
5
5
5
5
5
5
5
5
5
5
5
5
5
5
5
5
5
5
5
5
5
5
5
5
5
5
5
5
5
5
5
5
5
5
5
5
5
5
5
5
5
5
5
5
5
5
5
5
5
5
5
5
5
5
5
5
5
5
5
5
5
5
5
5
5
5
5
5
5
5
5
5
5
5
5
5
5
5
5
5
5
5
5
5
5
5
5
5
5
5
5
5
5
5
5
5
5
5
5
5
5
5
5
5
5
5
5
5
5
5
5
5
5
5
5
5
5
5
5
5
5
5
5
5
5
5
5
5
5
5
5
5
5
5
5
5
5
5
5
5
5
5
5
5
5
5
5
5
5
5
5
5
5
5
5
5
5
5
5
5
5
5
5
5
5
5
5
5
5
5
5
5
5
5
5
5
5
5
5
5
5
5
5
5
5
5
5
5
5
5
5
5
5
5
5
5
5
5
5
5
5
5
5
5
5
5
5
5
5
5
5
5
5
5
5
5
5
5
5
5
5
5
5
5
5
5
5
5
5
5
5
5
5
5
5
5
5
5
5
5
5
5
5
5
5
5
5
5
5
5
5
5
5
5
5
5
5
5
5
5
5
5
5
5
5
5
5
5
5
5
5
5
5
5
5
5
5
5
5
5
5
5
5
5
5
5
5
5
5
5
5
5
5
5
5
5
5
5
5
5
5
5
5
5
5
5
5
5
5
5
5
5
5
5
5
5
5
5
5
5
5
5
5
5
5
5
5
5
5
5
5
5
5
5
5
5
5
5
5
5
5
5
5
5
5
5
5
5
5
5
5
5
5
5
5
5
5
5
5
5
5
5
5
5
5
5
5
5
5
5
5
5
5
5
5
5
5
5
5
5
5
5
5
5
5
5
5
5
5
5
5
5
5
5
5
5
5
5
5
5
5
5
5
5
5
5
5
5
5
5
5
5
5
5
5
5
5
5
5
5
5
5
5
5
5
5
5
5
5
5
5
5
5
5
5
5
5
5
5
5
5
5
5
5
5
5
5
5
5
5
5
5
5
5
5
5
5
5
5
5
5
5
5
5
5
5
5
5
5
5
5
5
5
5
5
5
5
5
5
5
5
5
5
5
5
5
5
5
5
5
5
5
5
5
5
5
5
5
5
5
5
5
5
5
5
5
5
5
5
5
5
5
5
5
5
5
5
5
5
5
5
5
5
5
5
5
5
5
5
5
5
5
5
5
5
5
5
5
5
5
5
5
5
5
5
5
5
5
5
5
5
5
5
5
5
5
5
5
5
5
5
5
5
5
5
5
5
5
5
5
5
5
5
5
5
5
5
5
5
5
5
5
5
5
5
5
5
5
5
5
5
5
5
5
5
5
5
5
5
5
5
5
5
5
5
5
5
5
5
5
5
5
5
5
5
5
5
5
5
5
5
5
5
5
5
5
5
5
5
5
5
5
5
5
5
5
5
5
5
5
5
5
5
5
5
5
5
5
5
5
5
5
5
5
5
5
5
5
5
5
5
5
5
5
5
5
5
5
5
5
5
5
5
5
5
5
5
5
5
5
5
5
5
5
5
5
5
5
5
5
5
5
5
5
5
5
5
5
5
5
5
5
5
5
5
5
5
5
5
5
5
5
5
5
5
5
5
5
5
5
5
5
5
5
5
5
5
5
5
5
5
5
5
5
5
5
5
5
5
5
5
5
5
5
5
5
5
5
5
5
5
5
5
5
5
5
5
5
5
5
5
5
5
5
5
5
5
5
5
5
5
5
5
5
5
5
5
5
5
5
5
5
5
5
5
5
5
5
5
5
5
5
5
5
5
5
5
5
5
5
5
5
5
5
5
5
5
5
5
5
5
5
5
5
5
5
5
5
5
5
5
5
5
5
5
5
5
5
5
5
5
5
5
5
5
5
5
5
5
5
5
5
5
5
5
5
5
5
5
5
5
5
5
5
5
5
5
5
5
5
5
5
5
5
5
5
5
5
5
5
5
5
5
5
5
5
5
5
5
5
5
5
5
5
5
5
5
5
5
5
5
5
5
5
5
5
5
5
5
5
5
5
5
5
5
5
5
5
5
5
5
5
5
5
5
5
5
5
5
5
5
5
5
5
5
5
5
5
5
5
5
5
5
5
5
5
5
5
5
5
5
5
5
5
5
5
5
5
5
5
5
5
5
5
5
5
5
5
5
5
5
5
5
5
5
5
5
5
5
5
5
5
5
5
5
5
5
5
5
5
5
5
5
5
5
5
5
5
5
5
5
5
5
5
5
5
5
5
5
5
5
5
5
5
5
5
5
5
5
5
5
5
5
5
5
5
5
5
5
5
5
5
5
5
5
5
5
5
5
5
5
5
5
5
5
5
5
5
5
5
5
5
5
5
5
5
5
5
5
5
5
5
5
5
5
5
5
5
5
5
5
5
5
5
5
5
5
5
5
5
5
5
5
5
5
5
5
5
5
5
5
5
5
5
5
5
5
5
5
5
5
5
5
5
5
5
5
5
5
5
5
5
5
5
5
5
5
5
5
5
5
5
5
5
5
5
5
5
5
5
5
5
5
5
5
5
5
5
5
5
5
5
5
5
5
5
5
5
5
5
5
5
5
5
5
5
5
5
5
5
5
5
5
5
5
5
5
5
5
5
5
5
5
5
5
5
5
5
5
5
5
5
5
5
5
5
5
5
5
5
5
5
5
5
5
5
5
5
5
5
5
5
5
5
5
5
5
5
5
5
5
5
5
5
5
5
5
5
5
5
5
5
5
5
5
5
5
5
5
5
5
5
5
5
5
5
5
5
5
5
5
5
5
5
5
5
5
5
5
5
5
5
5
5
5
5
5
5
5
5
5
5
5
5
5
5
5
5
5
5
5
5
5
5
5
5
5
5
5
5
5
5
5
5
5
5
5
5
5
5
5
5
5
5
5
5
5
5
5
5
5
5
5
5
5
5
5
5
5
5
5
5
5
5
5
5
5
5
5
5
5
5
5
5
5
5
5
5
5
5
5
5
5
5
5
5
5
5
5
5
5
5
5
5
5
5
5
5
5
5
5
5
5
5
5
5
5
5
5
5
5
5
5
5
5
5
5
5
5
5
5
5
5
5
5
5
5
5
5
5
5
5
5
5
5
5
5
5
5
5
5
5
5
5
5
5
5
5
5
5
5
5
5
5
5
5
5
5
5
5
5
5
5
5
5
5
5
5
5
5
5
5
5
5
5
5
5
5
5
5
5
5
5
5
5
5
5
5
5
5
5
5
5
5
5
5
5
5
5
5
5
5
5
5
5
5
5
5
5
5
5
5
5
5
5
5
5
5
5
5
5
5
5
5
5
5
5
5
5
5
5
5
5
5
5
5
5
5
5
5
5
5
5
5
5
5
5
5
5
5
5
5
5
5
5
5
5
5
5
5
5
5
5
5
5
5
5
5
5
5
5
5
5
5
5
5
5
5
5
5
5
5
5
5
5
5
5
5
5
5
5
5
5
5
5
5
5
5
5
5
5
5
5
5
5
5
5
5
5
5
5
5
5
5
5
5
5
5
5
5
5
5
5
5
5
5
5
5
5
5
5
5
5
5
5
5
5
5
5
5
5
5
5
5
5
5
5
5
5
5
5
5
5
5
5
5
5
5
5
5
5
5
5
5
5
5
5
5
5
5
5
5
5
5
5
5
5
5
5
5
5
5
5
5
5
5
5
5
5
5
5
5
5
5
5
5
5
5
5
5
5
5
5
5
5
5
5
5
5
5
5
5
5
5
5
5
5
5
5
5
5
5
5
5
5
5
5
5
5
5
5
5
5
5
5
5
5
5
5
5
5
5
5
5
5
5
5
5
5
5
5
5
5
5
5
5
5
5
5
5
5
5
5
5
5
5
5
5
5
5
5
5
5
5
5
5
5
5
5
5
5
5
5
5
5
5
5
5
5
5
5
5
5
5
5
5
5
5
5
5
5
5
5
5
5
5
5
5
5
5
5
5
5
5
5
5
5
5
5
5
5
5
5
5
5
5
5
5
5
5
5
5
5
5
5
5
5
5
5
5
5
5
5
5
5
5
5
5
5
5
5
5
5
5
5
5
5
5
5
5
5
5
5
5
5
5
5
5
5
5
5
5
5
5
5
5
5
5
5
5
5
5
5
5
5
5
5
5
5
5
5
5
5
5
5
5
5
5
5
5
5
5
5
5
5
5
5
5
5
5
5
5
5
5
5
5
5
5
5
5
5
5
5
5
5
5
5
5
5
5
5
5
5
5
5
5
5
5
5
5
5
5
5
5
5
5
5
5
5
5
5
5
5
5
5
5
5
5
5
5
5
5
5
5
5
5
5
5
5
5
5
5
5
5
5
5
5
5
5
5
5
5
5
5
5
5
5
5
5
5
5
5
5
5
5
5
5
5
5
5
5
5
5
5
5
5
5
5
5
5
5
5
5
5
5
5
5
5
5
5
5
5
5
5
5
5
5
5
5
5
5
5
5
5
5
5
5
5
5
5
5
5
5
5
5
5
5
5
5
5
5
5
5
5
5
5
5
5
5
5
5
5
5
5
5
5
5
5
5
5
5
5
5
5
5
5
5
5
5
5
5
5
5
5
5
5
5
5
5
5
5
5
5
5
5
5
5
5
5
5
5
5
5
5
5
5
5
5
5
5
5
5
5
5
5
5
5
5
5
5
5
5
5
5
5
5
5
5
5
5
5
5
5
5
5
5
5
5
5
5
5
5
5
5
5
5
5
5
5
5
5
5
5
5
5
5
5
5
5
5
5
5
5
5
5
5
5
5
5
5
5
5
5
5
5
5
5
5
5
5
5
5
5
5
5
5
5
5
5
5
5
5
5
5
5
5
5
5
5
5
5
5
5
5
5
5
5
5
5
5
5
5
5
5
5
5
5
5
5
5
5
5
5
5
5
5
5
5
5
5
5
5
5
5
5
5
5
5
5
5
5
5
5
5
5
5
5
5
5
5
5
5
5
5
5
5
5
5
5
5
5
5
5
5
5
5
5
5
5
5
5
5
5
5
5
5
5
5
5
5
5
5
5
5
5
5
5
5
5
5
5
5
5
5
5
5
5
5
5
5
5
5
5
5
5
5
5
5
5
5
5
5
5
5
5
5
5
5
5
5
5
5
5
5
5
5
5
5
5
5
5
5
5
5
5
5
5
5
5
5
5
5
5
5
5
5
5
5
5
5
5
5
5
5
5
5
5
5
5
5
5
5
5
5
5
5
5
5
5
5
5
5
5
5
5
5
5
5
5
5
5
5
5
5
5
5
5
5
5
5
5
5
5
5
5
5
5
5
5
5
5
5
5
5
5
5
5
5
5
5
5
5
5
5
5
5
5
5
5
5
5
5
5
5
5
5
5
5
5
5
5
5
5
5
5
5
5
5
5
5
5
5
5
5
5
5
5
5
5
5
5
5
5
5
5
5
5
5
5
5
5
5
5
5
5
5
5
5
5
5
5
5
5
5
5
5
5
5
5
5
5
5
5
5
5
5
5
5
5
5
5
5
5
5
5
5
5
5
5
5
5
5
5
5
5
5
5
5
5
5
5
5
5
5
5
5
5
5
5
5
5
5
5
5
5
5
5
5
5
5
5
5
5
5
5
5
5
5
5
5
5
5
5
5
5
5
5
5
5
5
5
5
5
5
5
5
5
5
5
5
5
5
5
5
5
5
5
5
5
5
5
5
5
5
5
5
5
5
5
5
5
5
5
5
5
5
5
5
5
5
5
5
5
5
5
5
5
5
5
5
5
5
5
5
5
5
5
5
5
5
5
5
5
5
5
5
5
5
5
5
5
5
5
5
5
5
5
5
5
5
5
5
5
5
5
5
5
5
5
5
5
5
5
5
5
5
5
5
5
5
5
5
5
5
5
5
5
5
5
5
5
5
5
5
5
5
5
5
5
5
5
5
5
5
5
5
5
5
5
5
5
5
5
5
5
5
5
5
5
5
5
5
5
5
5
5
5
5
5
5
5
5
5
5
5
5
5
5
5
5
5
5
5
5
5
5
5
5
5
5
5
5
5
5
5
5
5
5
5
5
5
5
5
5
5
5
5
5
5
5
5
5
5
5
5
5
5
5
5
5
5
5
5
5
5
5
5
5
5
5
5
5
5
5
5
5
5
5
5
5
5
5
5
5
5
5
5
5
5
5
5
5
5
5
5
5
5
5
5
5
5
5
5
5
5
5
5
5
5
5
5
5
5
5
5
5
5
5
5
5
5
5
5
5
5
5
5
5
5
5
5
5
5
5
5
5
5
5
5
5
5
5
5
5
5
5
5
5
5
5
5
5
5
5
5
5
5
5
5
5
5
5
5
5
5
5
5
5
5
5
5
5
5
5
5
5
5
5
5
5
5
5
5
5
5
5
5
5
5
5
5
5
5
5
5
5
5
5
5
5
5
5
5
5
5
5
5
5
5
5
5
5
5
5
5
5
5
5
5
5
5
5
5
5
5
5
5
5
5
5
5
5
5
5
5
5
5
5
5
5
5
5
5
5
5
5
5
5
5
5
5
5
5
5
5
5
5
5
5
5
5
5
5
5
5
5
5
5
5
5
5
5
5
5
5
5
5
5
5
5
5
5
5
5
5
5
5
5
5
5
5
5
5
5
5
5
5
5
5
5
5
5
5
5
5
5
5
5
5
5
5
5
5
5
5
5
5
5
5
5
5
5
5
5
5
5
5
5
5
5
5
5
5
5
5
5
5
5
5
5
5
5
5
5
5
5
5
5
5
5
5
5
5
5
5
5
5
5
5
5
5
5
5
5
5
5
5
5
5
5
5
5
5
5
5
5
5
5
5
5
5
5
5
5
5
5
5
5
5
5
5
5
5
5
5
5
5
5
5
5
5
5
5
5
5
5
5
5
5
5
5
5
5
5
5
5
5
5
5
5
5
5
5
5
5
5
5
5
5
5
5
5
5
5
5
5
5
5
5
5
5
5
5
5
5
5
5
5
5
5
5
5
5
5
5
5
5
5
5
5
5
5
5
5
5
5
5
5
5
5
5
5
5
5
5
5
5
5
5
5
5
5
5
5
5
5
5
5
5
5
5
5
5
5
5
5
5
5
5
5
5
5
5
5
5
5
5
5
5
5
5
5
5
5
5
5
5
5
5
5
5
5
5
5
5
5
5
5
5
5
5
5
5
5
5
5
5
5
5
5
5
5
5
5
5
5
5
5
5
5
5
5
5
5
5
5
5
5
5
5
5
5
5
5
5
5
5
5
5
5
5
5
5
5
5
5
5
5
5
5
5
5
5
5
5
5
5
5
5
5
5
5
5
5
5
5
5
5
5
5
5
5
5
5
5
5
5
5
5
5
5
5
5
5
5
5
5
5
5
5
5
5
5
5
5
5
5
5
5
5
5
5
5
5
5
5
5
5
5
5
5
5
5
5
5
5
5
5
5
5
5
5
5
5
5
5
5
5
5
5
5
5
5
5
5
5
5
5
5
5
5
5
5
5
5
5
5
5
5
5
5
5
5
5
5
5
5
5
5
5
5
5
5
5
5
5
5
5
5
5
5
5
5
5
5
5
5
5
5
5
5
5
5
5
5
5
5
5
5
5
5
5
5
5
5
5
5
5
5
5
5
5
5
5
5
5
5
5
5
5
5
5
5
5
5
5
5
5
5
5
5
5
5
5
5
5
5
5
5
5
5
5
5
5
5
5
5
5
5
5
5
5
5
5
5
5
5
5
5
5
5
5
5
5
5
5
5
5
5
5
5
5
5
5
5
5
5
5
5
5
5
5
5
5
5
5
5
5
5
5
5
5
5
5
5
5
5
5
5
5
5
5
5
5
5
5
5
5
5
5
5
5
5
5
5
5
5
5
5
5
5
5
5
5
5
5
5
5
5
5
5
5
5
5
5
5
5
5
5
5
5
5
5
5
5
5
5
5
5
5
5
5
5
5
5
5
5
5
5
5
5
5
5
5
5
5
5
5
5
5
5
5
5
5
5
5
5
5
5
5
5
5
5
5
5
5
5
5
5
5
5
5
5
5
5
5
5
5
5
5
5
5
5
5
5
5
5
5
5
5
5
5
5
5
5
5
5
5
5
5
5
5
5
5
5
5
5
5
5
5
5
5
5
5
5
5
5
5
5
5
5
5
5
5
5
5
5
5
5
5
5
5
5
5
5
5
5
5
5
5
5
5
5
5
5
5
5
5
5
5
5
5
5
5
5
5
5
5
5
5
5
5
5
5
5
5
5
5
5
5
5
5
5
5
5
5
5
5
5
5
5
5
5
5
5
5
5
5
5
5
5
5
5
5
5
5
5
5
5
5
5
5
5
5
5
5
5
5
5
5
5
5
5
5
5
5
5
5
5
5
5
5
5
5
5
5
5
5
5
5
5
5
5
5
5
5
5
5
5
5
5
5
5
5
5
5
5
5
5
5
5
5
5
5
5
5
5
5
5
5
5
5
5
5
5
5
5
5
5
5
5
5
5
5
5
5
5
5
5
5
5
5
5
5
5
5
5
5
5
5
5
5
5
5
5
5
5
5
5
5
5
5
5
5
5
5
5
5
5
5
5
5
5
5
5
5
5
5
5
5
5
5
5
5
5
5
5
5
5
5
5
5
5
5
5
5
5
5
5
5
5
5
5
5
5
5
5
5
5
5
5
5
5
5
5
5
5
5
5
5
5
5
5
5
5
5
5
5
5
5
5
5
5
5
5
5
5
5
5
5
5
5
5
5
5
5
5
5
5
5
5
5
5
5
5
5
5
5
5
5
5
5
5
5
5
5
5
5
5
5
5
5
5
5
5
5
5
5
5
5
5
5
5
5
5
5
5
5
5
5
5
5
5
5
5
5
5
5
5
5
5
5
5
5
5
5
5
5
5
5
5
5
5
5
5
5
5
5
5
5
5
5
5
5
5
5
5
5
5
5
5
5
5
5
5
5
5
5
5
5
5
5
5
5
5
5
5
5
5
5
5
5
5
5
5
5
5
5
5
5
5
5
5
5
5
5
5
5
5
5
5
5
5
5
5
5
5
5
5
5
5
5
5
5
5
5
5
5
5
5
5
5
5
5
5
5
5
5
5
5
5
5
5
5
5
5
5
5
5
5
5
5
5
5
5
5
5
5
5
5
5
5
5
5
5
5
5
5
5
5
5
5
5
5
5
5
5
5
5
5
5
5
5
5
5
5
5
5
5
5
5
5
5
5
5
5
5
5
5
5
5
5
5
5
5
5
5
5
5
5
5
5
5
5
5
5
5
5
5
5
5
5
5
5
5
5
5
5
5
5
5
5
5
5
5
5
5
5
5
5
5
5
5
5
5
5
5
5
5
5
5
5
5
5
5
5
5
5
5
5
5
5
5
5
5
5
5
5
5
5
5
5
5
5
5
5
5
5
5
5
5
5
5
5
5
5
5
5
5
5
5
5
5
5
5
5
5
5
5
5
5
5
5
5
5
5
5
5
5
5
5
5
5
5
5
5
5
5
5
5
5
5
5
5
5
5
5
5
5
5
5
5
5
5
5
5
5
5
5
5
5
5
5
5
5
5
5
5
5
5
5
5
5
5
5
5
5
5
5
5
5
5
5
5
5
5
5
5
5
5
5
5
5
5
5
5
5
5
5
5
5
5
5
5
5
5
5
5
5
5
5
5
5
5
5
5
5
5
5
5
5
5
5
5
5
5
5
5
5
5
5
5
5
5
5
5
5
5
5
5
5
5
5
5
5
5
5
5
5
5
5
5
5
5
5
5
5
5
5
5
5
5
5
5
5
5
5
5
5
5
5
5
5
5
5
5
5
5
5
5
5
5
5
5
5
5
5
5
5
5
5
5
5
5
5
5
5
5
5
5
5
5
5
5
5
5
5
5
5
5
5
5
5
5
5
5
5
5
5
5
5
5
5
5
5
5
5
5
5
5
5
5
5
5
5
5
5
5
5
5
5
5
5
5
5
5
5
5
5
5
5
5
5
5
5
5
5
5
5
5
5
5
5
5
5
5
5
5
5
5
5
5
5
5
5
5
5
5
5
5
5
5
5
5
5
5
5
5
5
5
5
5
5
5
5
5
5
5
5
5
5
5
5
5
5
5
5
5
5
5
5
5
5
5
5
5
5
5
5
5
5
5
5
5
5
5
5
5
5
5
5
5
5
5
5
5
5
5
5
5
5
5
5
5
5
5
5
5
5
5
5
5
5
5
5
5
5
5
5
5
5
5
5
5
5
5
5
5
5
5
5
5
5
5
5
5
5
5
5
5
5
5
5
5
5
5
5
5
5
5
5
5
5
5
5
5
5
5
5
5
5
5
5
5
5
5
5
5
5
5
5
5
5
5
5
5
5
5
5
5
5
5
5
5
5
5
5
5
5
5
5
5
5
5
5
5
5
5
5
5
5
5
5
5
5
5
5
5
5
5
5
5
5
5
5
5
5
5
5
5
5
5
5
5
5
5
5
5
5
5
5
5
5
5
5
5
5
5
5
5
5
5
5
5
5
5
5
5
5
5
5
5
5
5
5
5
5
5
5
5
5
5
5
5
5
5
5
5
5
5
5
5
5
5
5
5
5
5
5
5
5
5
5
5
5
5
5
5
5
5
5
5
5
5
5
5
5
5
5
5
5
5
5
5
5
5
5
5
5
5
5
5
5
5
5
5
5
5
5
5
5
5
5
5
5
5
5
5
5
5
5
5
5
5
5
5
5
5
5
5
5
5
5
5
5
5
5
5
5
5
5
5
5
5
5
5
5
5
5
5
5
5
5
5
5
5
5
5
5
5
5
5
5
5
5
5
5
5
5
5
5
5
5
5
5
5
5
5
5
5
5
5
5
5
5
5
5
5
5
5
5
5
5
5
5
5
5
5
5
5
5
5
5
5
5
5
5
5
5
5
5
5
5
5
5
5
5
5
5
5
5
5
5
5
5
5
5
5
5
5
5
5
5
5
5
5
5
5
5
5
5
5
5
5
5
5
5
5
5
5
5
5
5
5
5
5
5
5
5
5
5
5
5
5
5
5
5
5
5
5
5
5
5
5
5
5
5
5
5
5
5
5
5
5
5
5
5
5
5
5
5
5
5
5
5
5
5
5
5
5
5
5
5
5
5
5
5
5
5
5
5
5
5
5
5
5
5
5
5
5
5
5
5
5
5
5
5
5
5
5
5
5
5
5
5
5
5
5
5
5
5
5
5
5
5
5
5
5
5
5
5
5
5
5
5
5
5
5
5
5
5
5
5
5
5
5
5
5
5
5
5
5
5
5
5
5
5
5
5
5
5
5
5
5
5
5
5
5
5
5
5
5
5
5
5
5
5
5
5
5
5
5
5
5
5
5
5
5
5
5
5
5
5
5
5
5
5
5
5
5
5
5
5
5
5
5
5
5
5
5
5
5
5
5
5
5
5
5
5
5
5
5
5
5
5
5
5
5
5
5
5
5
5
5
5
5
5
5
5
5
5
5
5
5
5
5
5
5
5
5
5
5
5
5
5
5
5
5
5
5
5
5
5
5
5
5
5
5
5
5
5
5
5
5
5
5
5
5
5
5
5
5
5
5
5
5
5
5
5
5
5
5
5
5
5
5
5
5
5
5
5
5
5
5
5
5
5
5
5
5
5
5
5
5
5
5
5
5
5
5
5
5
5
5
5
5
5
5
5
5
5
5
5
5
5
5
5
5
5
5
5
5
5
5
5
5
5
5
5
5
5
5
5
5
5
5
5
5
5
5
5
5
5
5
5
5
5
5
5
5
5
5
5
5
5
5
5
5
5
5
5
5
5
5
5
5
5
5
5
5
5
5
5
5
5
5
5
5
5
5
5
5
5
5
5
5
5
5
5
5
5
5
5
5
5
5
5
5
5
5
5
5
5
5
5
5
5
5
5
5
5
5
5
5
5
5
5
5
5
5
5
5
5
5
5
5
5
5
5
5
5
5
5
5
5
5
5
5
5
5
5
5
5
5
5
5
5
5
5
5
5
5
5
5
5
5
5
5
5
5
5
5
5
5
5
5
5
5
5
5
5
5
5
5
5
5
5
5
5
5
5
5
5
5
5
5
5
5
5
5
5
5
5
5
5
5
5
5
5
5
5
5
5
5
5
5
5
5
5
5
5
5
5
5
5
5
5
5
5
5
5
5
5
5
5
5
5
5
5
5
5
5
5
5
5
5
5
5
5
5
5
5
5
5
5
5
5
5
5
5
5
5
5
5
5
5
5
5
5
5
5
5
5
5
5
5
5
5
5
5
5
5
5
5
5
5
5
5
5
5
5
5
5
5
5
5
5
5
5
5
5
5
5
5
5
5
5
5
5
5
5
5
5
5
5
5
5
5
5
5
5
5
5
5
5
5
5
5
5
5
5
5
5
5
5
5
5
5
5
5
5
5
5
5
5
5
5
5
5
5
5
5
5
5
5
5
5
5
5
5
5
5
5
5
5
5
5
5
5
5
5
5
5
5
5
5
5
5
5
5
5
5
5
5
5
5
5
5
5
5
5
5
5
5
5
5
5
5
5
5
5
5
5
5
5
5
5
5
5
5
5
5
5
5
5
5
5
5
5
5
5
5
5
5
5
5
5
5
5
5
5
5
5
5
5
5
5
5
5
5
5
5
5
5
5
5
5
5
5
5
5
5
5
5
5
5
5
5
5
5
5
5
5
5
5
5
5
5
5
5
5
5
5
5
5
5
5
5
5
5
5
5
5
5
5
5
5
5
5
5
5
5
5
5
5
5
5
5
5
5
5
5
5
5
5
5
5
5
5
5
5
5
5
5
5
5
5
5
5
5
5
5
5
5
5
5
5
5
5
5
5
5
5
5
5
5
5
5
5
5
5
5
5
5
5
5
5
5
5
5
5
5
5
5
5
5
5
5
5
5
5
5
5
5
5
5
5
5
5
5
5
5
5
5
5
5
5
5
5
5
5
5
5
5
5
5
5
5
5
5
5
5
5
5
5
5
5
5
5
5
5
5
5
5
5
5
5
5
5
5
5
5
5
5
5
5
5
5
5
5
5
5
5
5
5
5
5
5
5
5
5
5
5
5
5
5
5
5
5
5
5
5
5
5
5
5
5
5
5
5
5
5
5
5
5
5
5
5
5
5
5
5
5
5
5
5
5
5
5
5
5
5
5
5
5
5
5
5
5
5
5
5
5
5
5
5
5
5
5
5
5
5
5
5
5
5
5
5
5
5
5
5
5
5
5
5
5
5
5
5
5
5
5
5
5
5
5
5
5
5
5

POINT_DATA 7351
FIELD FieldData 5
u 1 7351 double
0 0 0 0 0 0 0 0 0 
0 0 0 0 0 0 0 0 0 
0 0 0 0 0 0 0 0 0 
0 0 0 0 0 0 0 0 0 
0 0 0 0 0 0 0 0 0 
0 0 0 0 0 0 0 0 0 
0 0 0 0 0 0 0 0 0 
0 0 0 0 0 0 0 0 0 
0 0 0 0 0 0 0 0 0 
0 0 0 0 0 0 0 0 0 
0 0 0 0 0 0 0 0 0 
0 0 0 0 0 0 0 0 0 
0 0 0 0 0 0 0 0 0 
0 0 0 0 0 0 0 0 0 
0 0 0 0 0 0 0 0 0 
0 0 0 0 0 0 0 0 0 
0 0 0 0 0 0 0 0 0 
0 0 0 0 0 0 0 0 0 
0 0 0 0 0 0 0 0 0 
0 0 0 0 0 0 0 0 0 
0 0 0 0 0 0 0 0 0 
0 0 0 0 0 0 0 0 0 
0 0 0 0 0 0 0 0 0 
0 0 0 0 0 0 0 0 0 
0 0 0 0 0 0 0 0 0 
0 0 0 0 0 0 0 0 0 
0 0 0 0 0 0 0 0 0 
0 0 0 0 0 0 0 0 0 
0 0 0 0 0 0 0 0 0 
0 0 0 0 0 0 0 0 0 
0 0 0 0 0 0 0 0 0 
0 0 0 0 0 0 0 0 0 
0 0 0 0 0 0 0 0 0 
0 0 0 0 0 0 0 0 0 
0 0 0 0 0 0 0 0 0 
0 0 0 0 0 0 0 0 0 
0 0 0 0 0 0 0 0 0 
0 0 0 0 0 0 0 0 0 
0 0 0 0 0 0 0 0 0 
0 0 0 0 0 0 0 0 0 
0 0 0 0 0 0 0 0 0 
0 0 0 0 0 0 0 0 0 
0 0 0 0 0 0 0 0 0 
0 0 0 0 0 0 0 0 0 
0 0 0 0 0 0 0 0 0 
0 0 0 0 0 0 0 0 0 
0 0 0 0 0 0 0 0 0 
0 0 0 0 0 0 0 0 0 
0 0 0 0 0 0 0 0 0 
0 0 0 0 0 0 0 0 0 
0 0 0 0 0 0 0 0 0 
0 0 0 0 0 0 0 0 0 
0 0 0 0 0 0 0 0 0 
0 0 0 0 0 0 0 0 0 
0 0 0 0 0 0 0 0 0 
0 0 0 0 0 0 0 0 0 
0 0 0 0 0 0 0 0 0 
0 0 0 0 0 0 0 0 0 
0 0 0 0 0 0 0 0 0 
0 0 0 0 0 0 0 0 0 
0 0 0 0 0 0 0 0 0 
0 0 0 0 0 0 0 0 0 
0 0 0 0 0 0 0 0 0 
0 0 0 0 0 0 0 0 0 
0 0 0 0 0 0 0 0 0 
0 0 0 0 0 0 0 0 0 
0 0 0 0 0 0 0 0 0 
0 0 0 0 0 0 0 0 0 
0 0 0 0 0 0 0 0 0 
0 0 0 0 0 0 0 0 0 
0 0 0 0 0 0 0 0 0 
0 0 0 0 0 0 0 0 0 
0 0 0 0 0 0 0 0 0 
0 0 0 0 0 0 0 0 0 
0 0 0 0 0 0 0 0 0 
0 0 0 0 0 0 0 0 0 
0 0 0 0 0 0 0 0 0 
0 0 0 0 0 0 0 0 0 
0 0 0 0 0 0 0 0 0 
0 0 0 0 0 0 0 0 0 
0 0 0 0 0 0 0 0 0 
0 0 0 0 0 0 0 0 0 
0 0 0 0 0 0 0 0 0 
0 0 0 0 0 0 0 0 0 
0 0 0 0 0 0 0 0 0 
0 0 0 0 0 0 0 0 0 
0 0 0 0 0 0 0 0 0 
0 0 0 0 0 0 0 0 0 
0 0 0 0 0 0 0 0 0 
0 0 0 0 0 0 0 0 0 
0 0 0 0 0 0 0 0 0 
0 0 0 0 0 0 0 0 0 
0 0 0 0 0 0 0 0 0 
0 0 0 0 0 0 0 0 0 
0 0 0 0 0 0 0 0 0 
0 0 0 0 0 0 0 0 0 
0 0 0 0 0 0 0 0 0 
0 0 0 0 0 0 0 0 0 
0 0 0 0 0 0 0 0 0 
0 0 0 0 0 0 0 0 0 
0 0 0 0 0 0 0 0 0 
0 0 0 0 0 0 0 0 0 
0 0 0 0 0 0 0 0 0 
0 0 0 0 0 0 0 0 0 
0 0 0 0 0 0 0 0 0 
0 0 0 0 0 0 0 0 0 
0 0 0 0 0 0 0 0 0 
0 0 0 0 0 0 0 0 0 
0 0 0 0 0 0 0 0 0 
0 0 0 0 0 0 0 0 0 
0 0 0 0 0 0 0 0 0 
0 0 0 0 0 0 0 0 0 
0 0 0 0 0 0 0 0 0 
0 0 0 0 0 0 0 0 0 
0 0 0 0 0 0 0 0 0 
0 0 0 0 0 0 0 0 0 
0 0 0 0 0 0 0 0 0 
0 0 0 0 0 0 0 0 0 
0 0 0 0 0 0 0 0 0 
0 0 0 0 0 0 0 0 0 
0 0 0 0 0 0 0 0 0 
0 0 0 0 0 0 0 0 0 
0 0 0 0 0 0 0 0 0 
0 0 0 0 0 0 0 0 0 
0 0 0 0 0 0 0 0 0 
0 0 0 0 0 0 0 0 0 
0 0 0 0 0 0 0 0 0 
0 0 0 0 0 0 0 0 0 
0 0 0 0 0 0 0 0 0 
0 0 0 0 0 0 0 0 0 
0 0 0 0 0 0 0 0 0 
0 0 0 0 0 0 0 0 0 
0 0 0 0 0 0 0 0 0 
0 0 0 0 0 0 0 0 0 
0 0 0 0 0 0 0 0 0 
0 0 0 0 0 0 0 0 0 
0 0 0 0 0 0 0 0 0 
0 0 0 0 0 0 0 0 0 
0 0 0 0 0 0 0 0 0 
0 0 0 0 0 0 0 0 0 
0 0 0 0 0 0 0 0 0 
0 0 0 0 0 0 0 0 0 
0 0 0 0 0 0 0 0 0 
0 0 0 0 0 0 0 0 0 
0 0 0 0 0 0 0 0 0 
0 0 0 0 0 0 0 0 0 
0 0 0 0 0 0 0 0 0 
0 0 0 0 0 0 0 0 0 
0 0 0 0 0 0 0 0 0 
0 0 0 0 0 0 0 0 0 
0 0 0 0 0 0 0 0 0 
0 0 0 0 0 0 0 0 0 
0 0 0 0 0 0 0 0 0 
0 0 0 0 0 0 0 0 0 
0 0 0 0 0 0 0 0 0 
0 0 0 0 0 0 0 0 0 
0 0 0 0 0 0 0 0 0 
0 0 0 0 0 0 0 0 0 
0 0 0 0 0 0 0 0 0 
0 0 0 0 0 0 0 0 0 
0 0 0 0 0 0 0 0 0 
0 0 0 0 0 0 0 0 0 
0 0 0 0 0 0 0 0 0 
0 0 0 0 0 0 0 0 0 
0 0 0 0 0 0 0 0 0 
0 0 0 0 0 0 0 0 0 
0 0 0 0 0 0 0 0 0 
0 0 0 0 0 0 0 0 0 
0 0 0 0 0 0 0 0 0 
0 0 0 0 0 0 0 0 0 
0 0 0 0 0 0 0 0 0 
0 0 0 0 0 0 0 0 0 
0 0 0 0 0 0 0 0 0 
0 0 0 0 0 0 0 0 0 
0 0 0 0 0 0 0 0 0 
0 0 0 0 0 0 0 0 0 
0 0 0 0 0 0 0 0 0 
0 0 0 0 0 0 0 0 0 
0 0 0 0 0 0 0 0 0 
0 0 0 0 0 0 0 0 0 
0 0 0 0 0 0 0 0 0 
0 0 0 0 0 0 0 0 0 
0 0 0 0 0 0 0 0 0 
0 0 0 0 0 0 0 0 0 
0 0 0 0 0 0 0 0 0 
0 0 0 0 0 0 0 0 0 
0 0 0 0 0 0 0 0 0 
0 0 0 0 0 0 0 0 0 
0 0 0 0 0 0 0 0 0 
0 0 0 0 0 0 0 0 0 
0 0 0 0 0 0 0 0 0 
0 0 0 0 0 0 0 0 0 
0 0 0 0 0 0 0 0 0 
0 0 0 0 0 0 0 0 0 
0 0 0 0 0 0 0 0 0 
0 0 0 0 0 0 0 0 0 
0 0 0 0 0 0 0 0 0 
0 0 0 0 0 0 0 0 0 
0 0 0 0 0 0 0 0 0 
0 0 0 0 0 0 0 0 0 
0 0 0 0 0 0 0 0 0 
0 0 0 0 0 0 0 0 0 
0 0 0 0 0 0 0 0 0 
0 0 0 0 0 0 0 0 0 
0 0 0 0 0 0 0 0 0 
0 0 0 0 0 0 0 0 0 
0 0 0 0 0 0 0 0 0 
0 0 0 0 0 0 0 0 0 
0 0 0 0 0 0 0 0 0 
0 0 0 0 0 0 0 0 0 
0 0 0 0 0 0 0 0 0 
0 0 0 0 0 0 0 0 0 
0 0 0 0 0 0 0 0 0 
0 0 0 0 0 0 0 0 0 
0 0 0 0 0 0 0 0 0 
0 0 0 0 0 0 0 0 0 
0 0 0 0 0 0 0 0 0 
0 0 0 0 0 0 0 0 0 
0 0 0 0 0 0 0 0 0 
0 0 0 0 0 0 0 0 0 
0 0 0 0 0 0 0 0 0 
0 0 0 0 0 0 0 0 0 
0 0 0 0 0 0 0 0 0 
0 0 0 0 0 0 0 0 0 
0 0 0 0 0 0 0 0 0 
0 0 0 0 0 0 0 0 0 
0 0 0 0 0 0 0 0 0 
0 0 0 0 0 0 0 0 0 
0 0 0 0 0 0 0 0 0 
0 0 0 0 0 0 0 0 0 
0 0 0 0 0 0 0 0 0 
0 0 0 0 0 0 0 0 0 
0 0 0 0 0 0 0 0 0 
0 0 0 0 0 0 0 0 0 
0 0 0 0 0 0 0 0 0 
0 0 0 0 0 0 0 0 0 
0 0 0 0 0 0 0 0 0 
0 0 0 0 0 0 0 0 0 
0 0 0 0 0 0 0 0 0 
0 0 0 0 0 0 0 0 0 
0 0 0 0 0 0 0 0 0 
0 0 0 0 0 0 0 0 0 
0 0 0 0 0 0 0 0 0 
0 0 0 0 0 0 0 0 0 
0 0 0 0 0 0 0 0 0 
0 0 0 0 0 0 0 0 0 
0 0 0 0 0 0 0 0 0 
0 0 0 0 0 0 0 0 0 
0 0 0 0 0 0 0 0 0 
0 0 0 0 0 0 0 0 0 
0 0 0 0 0 0 0 0 0 
0 0 0 0 0 0 0 0 0 
0 0 0 0 0 0 0 0 0 
0 0 0 0 0 0 0 0 0 
0 0 0 0 0 0 0 0 0 
0 0 0 0 0 0 0 0 0 
0 0 0 0 0 0 0 0 0 
0 0 0 0 0 0 0 0 0 
0 0 0 0 0 0 0 0 0 
0 0 0 0 0 0 0 0 0 
0 0 0 0 0 0 0 0 0 
0 0 0 0 0 0 0 0 0 
0 0 0 0 0 0 0 0 0 
0 0 0 0 0 0 0 0 0 
0 0 0 0 0 0 0 0 0 
0 0 0 0 0 0 0 0 0 
0 0 0 0 0 0 0 0 0 
0 0 0 0 0 0 0 0 0 
0 0 0 0 0 0 0 0 0 
0 0 0 0 0 0 0 0 0 
0 0 0 0 0 0 0 0 0 
0 0 0 0 0 0 0 0 0 
0 0 0 0 0 0 0 0 0 
0 0 0 0 0 0 0 0 0 
0 0 0 0 0 0 0 0 0 
0 0 0 0 0 0 0 0 0 
0 0 0 0 0 0 0 0 0 
0 0 0 0 0 0 0 0 0 
0 0 0 0 0 0 0 0 0 
0 0 0 0 0 0 0 0 0 
0 0 0 0 0 0 0 0 0 
0 0 0 0 0 0 0 0 0 
0 0 0 0 0 0 0 0 0 
0 0 0 0 0 0 0 0 0 
0 0 0 0 0 0 0 0 0 
0 0 0 0 0 0 0 0 0 
0 0 0 0 0 0 0 0 0 
0 0 0 0 0 0 0 0 0 
0 0 0 0 0 0 0 0 0 
0 0 0 0 0 0 0 0 0 
0 0 0 0 0 0 0 0 0 
0 0 0 0 0 0 0 0 0 
0 0 0 0 0 0 0 0 0 
0 0 0 0 0 0 0 0 0 
0 0 0 0 0 0 0 0 0 
0 0 0 0 0 0 0 0 0 
0 0 0 0 0 0 0 0 0 
0 0 0 0 0 0 0 0 0 
0 0 0 0 0 0 0 0 0 
0 0 0 0 0 0 0 0 0 
0 0 0 0 0 0 0 0 0 
0 0 0 0 0 0 0 0 0 
0 0 0 0 0 0 0 0 0 
0 0 0 0 0 0 0 0 0 
0 0 0 0 0 0 0 0 0 
0 0 0 0 0 0 0 0 0 
0 0 0 0 0 0 0 0 0 
0 0 0 0 0 0 0 0 0 
0 0 0 0 0 0 0 0 0 
0 0 0 0 0 0 0 0 0 
0 0 0 0 0 0 0 0 0 
0 0 0 0 0 0 0 0 0 
0 0 0 0 0 0 0 0 0 
0 0 0 0 0 0 0 0 0 
0 0 0 0 0 0 0 0 0 
0 0 0 0 0 0 0 0 0 
0 0 0 0 0 0 0 0 0 
0 0 0 0 0 0 0 0 0 
0 0 0 0 0 0 0 0 0 
0 0 0 0 0 0 0 0 0 
0 0 0 0 0 0 0 0 0 
0 0 0 0 0 0 0 0 0 
0 0 0 0 0 0 0 0 0 
0 0 0 0 0 0 0 0 0 
0 0 0 0 0 0 0 0 0 
0 0 0 0 0 0 0 0 0 
0 0 0 0 0 0 0 0 0 
0 0 0 0 0 0 0 0 0 
0 0 0 0 0 0 0 0 0 
0 0 0 0 0 0 0 0 0 
0 0 0 0 0 0 0 0 0 
0 0 0 0 0 0 0 0 0 
0 0 0 0 0 0 0 0 0 
0 0 0 0 0 0 0 0 0 
0 0 0 0 0 0 0 0 0 
0 0 0 0 0 0 0 0 0 
0 0 0 0 0 0 0 0 0 
0 0 0 0 0 0 0 0 0 
0 0 0 0 0 0 0 0 0 
0 0 0 0 0 0 0 0 0 
0 0 0 0 0 0 0 0 0 
0 0 0 0 0 0 0 0 0 
0 0 0 0 0 0 0 0 0 
0 0 0 0 0 0 0 0 0 
0 0 0 0 0 0 0 0 0 
0 0 0 0 0 0 0 0 0 
0 0 0 0 0 0 0 0 0 
0 0 0 0 0 0 0 0 0 
0 0 0 0 0 0 0 0 0 
0 0 0 0 0 0 0 0 0 
0 0 0 0 0 0 0 0 0 
0 0 0 0 0 0 0 0 0 
0 0 0 0 0 0 0 0 0 
0 0 0 0 0 0 0 0 0 
0 0 0 0 0 0 0 0 0 
0 0 0 0 0 0 0 0 0 
0 0 0 0 0 0 0 0 0 
0 0 0 0 0 0 0 0 0 
0 0 0 0 0 0 0 0 0 
0 0 0 0 0 0 0 0 0 
0 0 0 0 0 0 0 0 0 
0 0 0 0 0 0 0 0 0 
0 0 0 0 0 0 0 0 0 
0 0 0 0 0 0 0 0 0 
0 0 0 0 0 0 0 0 0 
0 0 0 0 0 0 0 0 0 
0 0 0 0 0 0 0 0 0 
0 0 0 0 0 0 0 0 0 
0 0 0 0 0 0 0 0 0 
0 0 0 0 0 0 0 0 0 
0 0 0 0 0 0 0 0 0 
0 0 0 0 0 0 0 0 0 
0 0 0 0 0 0 0 0 0 
0 0 0 0 0 0 0 0 0 
0 0 0 0 0 0 0 0 0 
0 0 0 0 0 0 0 0 0 
0 0 0 0 0 0 0 0 0 
0 0 0 0 0 0 0 0 0 
0 0 0 0 0 0 0 0 0 
0 0 0 0 0 0 0 0 0 
0 0 0 0 0 0 0 0 0 
0 0 0 0 0 0 0 0 0 
0 0 0 0 0 0 0 0 0 
0 0 0 0 0 0 0 0 0 
0 0 0 0 0 0 0 0 0 
0 0 0 0 0 0 0 0 0 
0 0 0 0 0 0 0 0 0 
0 0 0 0 0 0 0 0 0 
0 0 0 0 0 0 0 0 0 
0 0 0 0 0 0 0 0 0 
0 0 0 0 0 0 0 0 0 
0 0 0 0 0 0 0 0 0 
0 0 0 0 0 0 0 0 0 
0 0 0 0 0 0 0 0 0 
0 0 0 0 0 0 0 0 0 
0 0 0 0 0 0 0 0 0 
0 0 0 0 0 0 0 0 0 
0 0 0 0 0 0 0 0 0 
0 0 0 0 0 0 0 0 0 
0 0 0 0 0 0 0 0 0 
0 0 0 0 0 0 0 0 0 
0 0 0 0 0 0 0 0 0 
0 0 0 0 0 0 0 0 0 
0 0 0 0 0 0 0 0 0 
0 0 0 0 0 0 0 0 0 
0 0 0 0 0 0 0 0 0 
0 0 0 0 0 0 0 0 0 
0 0 0 0 0 0 0 0 0 
0 0 0 0 0 0 0 0 0 
0 0 0 0 0 0 0 0 0 
0 0 0 0 0 0 0 0 0 
0 0 0 0 0 0 0 0 0 
0 0 0 0 0 0 0 0 0 
0 0 0 0 0 0 0 0 0 
0 0 0 0 0 0 0 0 0 
0 0 0 0 0 0 0 0 0 
0 0 0 0 0 0 0 0 0 
0 0 0 0 0 0 0 0 0 
0 0 0 0 0 0 0 0 0 
0 0 0 0 0 0 0 0 0 
0 0 0 0 0 0 0 0 0 
0 0 0 0 0 0 0 0 0 
0 0 0 0 0 0 0 0 0 
0 0 0 0 0 0 0 0 0 
0 0 0 0 0 0 0 0 0 
0 0 0 0 0 0 0 0 0 
0 0 0 0 0 0 0 0 0 
0 0 0 0 0 0 0 0 0 
0 0 0 0 0 0 0 0 0 
0 0 0 0 0 0 0 0 0 
0 0 0 0 0 0 0 0 0 
0 0 0 0 0 0 0 0 0 
0 0 0 0 0 0 0 0 0 
0 0 0 0 0 0 0 0 0 
0 0 0 0 0 0 0 0 0 
0 0 0 0 0 0 0 0 0 
0 0 0 0 0 0 0 0 0 
0 0 0 0 0 0 0 0 0 
0 0 0 0 0 0 0 0 0 
0 0 0 0 0 0 0 0 0 
0 0 0 0 0 0 0 0 0 
0 0 0 0 0 0 0 0 0 
0 0 0 0 0 0 0 0 0 
0 0 0 0 0 0 0 0 0 
0 0 0 0 0 0 0 0 0 
0 0 0 0 0 0 0 0 0 
0 0 0 0 0 0 0 0 0 
0 0 0 0 0 0 0 0 0 
0 0 0 0 0 0 0 0 0 
0 0 0 0 0 0 0 0 0 
0 0 0 0 0 0 0 0 0 
0 0 0 0 0 0 0 0 0 
0 0 0 0 0 0 0 0 0 
0 0 0 0 0 0 0 0 0 
0 0 0 0 0 0 0 0 0 
0 0 0 0 0 0 0 0 0 
0 0 0 0 0 0 0 0 0 
0 0 0 0 0 0 0 0 0 
0 0 0 0 0 0 0 0 0 
0 0 0 0 0 0 0 0 0 
0 0 0 0 0 0 0 0 0 
0 0 0 0 0 0 0 0 0 
0 0 0 0 0 0 0 0 0 
0 0 0 0 0 0 0 0 0 
0 0 0 0 0 0 0 0 0 
0 0 0 0 0 0 0 0 0 
0 0 0 0 0 0 0 0 0 
0 0 0 0 0 0 0 0 0 
0 0 0 0 0 0 0 0 0 
0 0 0 0 0 0 0 0 0 
0 0 0 0 0 0 0 0 0 
0 0 0 0 0 0 0 0 0 
0 0 0 0 0 0 0 0 0 
0 0 0 0 0 0 0 0 0 
0 0 0 0 0 0 0 0 0 
0 0 0 0 0 0 0 0 0 
0 0 0 0 0 0 0 0 0 
0 0 0 0 0 0 0 0 0 
0 0 0 0 0 0 0 0 0 
0 0 0 0 0 0 0 0 0 
0 0 0 0 0 0 0 0 0 
0 0 0 0 0 0 0 0 0 
0 0 0 0 0 0 0 0 0 
0 0 0 0 0 0 0 0 0 
0 0 0 0 0 0 0 0 0 
0 0 0 0 0 0 0 0 0 
0 0 0 0 0 0 0 0 0 
0 0 0 0 0 0 0 0 0 
0 0 0 0 0 0 0 0 0 
0 0 0 0 0 0 0 0 0 
0 0 0 0 0 0 0 0 0 
0 0 0 0 0 0 0 0 0 
0 0 0 0 0 0 0 0 0 
0 0 0 0 0 0 0 0 0 
0 0 0 0 0 0 0 0 0 
0 0 0 0 0 0 0 0 0 
0 0 0 0 0 0 0 0 0 
0 0 0 0 0 0 0 0 0 
0 0 0 0 0 0 0 0 0 
0 0 0 0 0 0 0 0 0 
0 0 0 0 0 0 0 0 0 
0 0 0 0 0 0 0 0 0 
0 0 0 0 0 0 0 0 0 
0 0 0 0 0 0 0 0 0 
0 0 0 0 0 0 0 0 0 
0 0 0 0 0 0 0 0 0 
0 0 0 0 0 0 0 0 0 
0 0 0 0 0 0 0 0 0 
0 0 0 0 0 0 0 0 0 
0 0 0 0 0 0 0 0 0 
0 0 0 0 0 0 0 0 0 
0 0 0 0 0 0 0 0 0 
0 0 0 0 0 0 0 0 0 
0 0 0 0 0 0 0 0 0 
0 0 0 0 0 0 0 0 0 
0 0 0 0 0 0 0 0 0 
0 0 0 0 0 0 0 0 0 
0 0 0 0 0 0 0 0 0 
0 0 0 0 0 0 0 0 0 
0 0 0 0 0 0 0 0 0 
0 0 0 0 0 0 0 0 0 
0 0 0 0 0 0 0 0 0 
0 0 0 0 0 0 0 0 0 
0 0 0 0 0 0 0 0 0 
0 0 0 0 0 0 0 0 0 
0 0 0 0 0 0 0 0 0 
0 0 0 0 0 0 0 0 0 
0 0 0 0 0 0 0 0 0 
0 0 0 0 0 0 0 0 0 
0 0 0 0 0 0 0 0 0 
0 0 0 0 0 0 0 0 0 
0 0 0 0 0 0 0 0 0 
0 0 0 0 0 0 0 0 0 
0 0 0 0 0 0 0 0 0 
0 0 0 0 0 0 0 0 0 
0 0 0 0 0 0 0 0 0 
0 0 0 0 0 0 0 0 0 
0 0 0 0 0 0 0 0 0 
0 0 0 0 0 0 0 0 0 
0 0 0 0 0 0 0 0 0 
0 0 0 0 0 0 0 0 0 
0 0 0 0 0 0 0 0 0 
0 0 0 0 0 0 0 0 0 
0 0 0 0 0 0 0 0 0 
0 0 0 0 0 0 0 0 0 
0 0 0 0 0 0 0 0 0 
0 0 0 0 0 0 0 0 0 
0 0 0 0 0 0 0 0 0 
0 0 0 0 0 0 0 0 0 
0 0 0 0 0 0 0 0 0 
0 0 0 0 0 0 0 0 0 
0 0 0 0 0 0 0 0 0 
0 0 0 0 0 0 0 0 0 
0 0 0 0 0 0 0 0 0 
0 0 0 0 0 0 0 0 0 
0 0 0 0 0 0 0 0 0 
0 0 0 0 0 0 0 0 0 
0 0 0 0 0 0 0 0 0 
0 0 0 0 0 0 0 0 0 
0 0 0 0 0 0 0 0 0 
0 0 0 0 0 0 0 0 0 
0 0 0 0 0 0 0 0 0 
0 0 0 0 0 0 0 0 0 
0 0 0 0 0 0 0 0 0 
0 0 0 0 0 0 0 0 0 
0 0 0 0 0 0 0 0 0 
0 0 0 0 0 0 0 0 0 
0 0 0 0 0 0 0 0 0 
0 0 0 0 0 0 0 0 0 
0 0 0 0 0 0 0 0 0 
0 0 0 0 0 0 0 0 0 
0 0 0 0 0 0 0 0 0 
0 0 0 0 0 0 0 0 0 
0 0 0 0 0 0 0 0 0 
0 0 0 0 0 0 0 0 0 
0 0 0 0 0 0 0 0 0 
0 0 0 0 0 0 0 0 0 
0 0 0 0 0 0 0 0 0 
0 0 0 0 0 0 0 0 0 
0 0 0 0 0 0 0 0 0 
0 0 0 0 0 0 0 0 0 
0 0 0 0 0 0 0 0 0 
0 0 0 0 0 0 0 0 0 
0 0 0 0 0 0 0 0 0 
0 0 0 0 0 0 0 0 0 
0 0 0 0 0 0 0 0 0 
0 0 0 0 0 0 0 0 0 
0 0 0 0 0 0 0 0 0 
0 0 0 0 0 0 0 0 0 
0 0 0 0 0 0 0 0 0 
0 0 0 0 0 0 0 0 0 
0 0 0 0 0 0 0 0 0 
0 0 0 0 0 0 0 0 0 
0 0 0 0 0 0 0 0 0 
0 0 0 0 0 0 0 0 0 
0 0 0 0 0 0 0 0 0 
0 0 0 0 0 0 0 0 0 
0 0 0 0 0 0 0 0 0 
0 0 0 0 0 0 0 0 0 
0 0 0 0 0 0 0 0 0 
0 0 0 0 0 0 0 0 0 
0 0 0 0 0 0 0 0 0 
0 0 0 0 0 0 0 0 0 
0 0 0 0 0 0 0 0 0 
0 0 0 0 0 0 0 0 0 
0 0 0 0 0 0 0 0 0 
0 0 0 0 0 0 0 0 0 
0 0 0 0 0 0 0 0 0 
0 0 0 0 0 0 0 0 0 
0 0 0 0 0 0 0 0 0 
0 0 0 0 0 0 0 0 0 
0 0 0 0 0 0 0 0 0 
0 0 0 0 0 0 0 0 0 
0 0 0 0 0 0 0 0 0 
0 0 0 0 0 0 0 0 0 
0 0 0 0 0 0 0 0 0 
0 0 0 0 0 0 0 0 0 
0 0 0 0 0 0 0 0 0 
0 0 0 0 0 0 0 0 0 
0 0 0 0 0 0 0 0 0 
0 0 0 0 0 0 0 0 0 
0 0 0 0 0 0 0 0 0 
0 0 0 0 0 0 0 0 0 
0 0 0 0 0 0 0 0 0 
0 0 0 0 0 0 0 0 0 
0 0 0 0 0 0 0 0 0 
0 0 0 0 0 0 0 0 0 
0 0 0 0 0 0 0 0 0 
0 0 0 0 0 0 0 0 0 
0 0 0 0 0 0 0 0 0 
0 0 0 0 0 0 0 0 0 
0 0 0 0 0 0 0 0 0 
0 0 0 0 0 0 0 0 0 
0 0 0 0 0 0 0 0 0 
0 0 0 0 0 0 0 0 0 
0 0 0 0 0 0 0 0 0 
0 0 0 0 0 0 0 0 0 
0 0 0 0 0 0 0 0 0 
0 0 0 0 0 0 0 0 0 
0 0 0 0 0 0 0 0 0 
0 0 0 0 0 0 0 0 0 
0 0 0 0 0 0 0 0 0 
0 0 0 0 0 0 0 0 0 
0 0 0 0 0 0 0 0 0 
0 0 0 0 0 0 0 0 0 
0 0 0 0 0 0 0 0 0 
0 0 0 0 0 0 0 0 0 
0 0 0 0 0 0 0 0 0 
0 0 0 0 0 0 0 0 0 
0 0 0 0 0 0 0 0 0 
0 0 0 0 0 0 0 0 0 
0 0 0 0 0 0 0 0 0 
0 0 0 0 0 0 0 0 0 
0 0 0 0 0 0 0 0 0 
0 0 0 0 0 0 0 0 0 
0 0 0 0 0 0 0 0 0 
0 0 0 0 0 0 0 0 0 
0 0 0 0 0 0 0 0 0 
0 0 0 0 0 0 0 0 0 
0 0 0 0 0 0 0 0 0 
0 0 0 0 0 0 0 0 0 
0 0 0 0 0 0 0 0 0 
0 0 0 0 0 0 0 0 0 
0 0 0 0 0 0 0 0 0 
0 0 0 0 0 0 0 0 0 
0 0 0 0 0 0 0 0 0 
0 0 0 0 0 0 0 0 0 
0 0 0 0 0 0 0 0 0 
0 0 0 0 0 0 0 0 0 
0 0 0 0 0 0 0 0 0 
0 0 0 0 0 0 0 0 0 
0 0 0 0 0 0 0 0 0 
0 0 0 0 0 0 0 0 0 
0 0 0 0 0 0 0 0 0 
0 0 0 0 0 0 0 0 0 
0 0 0 0 0 0 0 0 0 
0 0 0 0 0 0 0 0 0 
0 0 0 0 0 0 0 0 0 
0 0 0 0 0 0 0 0 0 
0 0 0 0 0 0 0 0 0 
0 0 0 0 0 0 0 0 0 
0 0 0 0 0 0 0 0 0 
0 0 0 0 0 0 0 0 0 
0 0 0 0 0 0 0 0 0 
0 0 0 0 0 0 0 0 0 
0 0 0 0 0 0 0 0 0 
0 0 0 0 0 0 0 0 0 
0 0 0 0 0 0 0 0 0 
0 0 0 0 0 0 0 0 0 
0 0 0 0 0 0 0 0 0 
0 0 0 0 0 0 0 0 0 
0 0 0 0 0 0 0 0 0 
0 0 0 0 0 0 0 0 0 
0 0 0 0 0 0 0 0 0 
0 0 0 0 0 0 0 0 0 
0 0 0 0 0 0 0 0 0 
0 0 0 0 0 0 0 0 0 
0 0 0 0 0 0 0 0 0 
0 0 0 0 0 0 0 0 0 
0 0 0 0 0 0 0 0 0 
0 0 0 0 0 0 0 0 0 
0 0 0 0 0 0 0 0 0 
0 0 0 0 0 0 0 0 0 
0 0 0 0 0 0 0 0 0 
0 0 0 0 0 0 0 0 0 
0 0 0 0 0 0 0 0 0 
0 0 0 0 0 0 0 0 0 
0 0 0 0 0 0 0 0 0 
0 0 0 0 0 0 0 0 0 
0 0 0 0 0 0 0 0 0 
0 0 0 0 0 0 0 0 0 
0 0 0 0 0 0 0 0 0 
0 0 0 0 0 0 0 0 0 
0 0 0 0 0 0 0 0 0 
0 0 0 0 0 0 0 0 0 
0 0 0 0 0 0 0 0 0 
0 0 0 0 0 0 0 0 0 
0 0 0 0 0 0 0 0 0 
0 0 0 0 0 0 0 0 0 
0 0 0 0 0 0 0 0 0 
0 0 0 0 0 0 0 0 0 
0 0 0 0 0 0 0 0 0 
0 0 0 0 0 0 0 0 0 
0 0 0 0 0 0 0 0 0 
0 0 0 0 0 0 0 0 0 
0 0 0 0 0 0 0 0 0 
0 0 0 0 0 0 0 0 0 
0 0 0 0 0 0 0 0 0 
0 0 0 0 0 0 0 0 0 
0 0 0 0 0 0 0 0 0 
0 0 0 0 0 0 0 0 0 
0 0 0 0 0 0 0 0 0 
0 0 0 0 0 0 0 0 0 
0 0 0 0 0 0 0 0 0 
0 0 0 0 0 0 0 0 0 
0 0 0 0 0 0 0 0 0 
0 0 0 0 0 0 0 0 0 
0 0 0 0 0 0 0 0 0 
0 0 0 0 0 0 0 0 0 
0 0 0 0 0 0 0 0 0 
0 0 0 0 0 0 0 0 0 
0 0 0 0 0 0 0 0 0 
0 0 0 0 0 0 0 0 0 
0 0 0 0 0 0 0 0 0 
0 0 0 0 0 0 0 0 0 
0 0 0 0 0 0 0 0 0 
0 0 0 0 0 0 0 0 0 
0 0 0 0 0 0 0 0 0 
0 0 0 0 0 0 0 0 0 
0 0 0 0 0 0 0 0 0 
0 0 0 0 0 0 0 0 0 
0 0 0 0 0 0 0 0 0 
0 0 0 0 0 0 0 0 0 
0 0 0 0 0 0 0 0 0 
0 0 0 0 0 0 0 0 0 
0 0 0 0 0 0 0 0 0 
0 0 0 0 0 0 0 0 0 
0 0 0 0 0 0 0 0 0 
0 0 0 0 0 0 0 0 0 
0 0 0 0 0 0 0 0 0 
0 0 0 0 0 0 0 0 0 
0 0 0 0 0 0 0 0 0 
0 0 0 0 0 0 0 0 0 
0 0 0 0 0 0 0 0 0 
0 0 0 0 0 0 0 0 0 
0 0 0 0 0 0 0 0 0 
0 0 0 0 0 0 0 0 0 
0 0 0 0 0 0 0 0 0 
0 0 0 0 0 0 0 0 0 
0 0 0 0 0 0 0 0 0 
0 0 0 0 0 0 0 0 0 
0 0 0 0 0 0 0 0 0 
0 0 0 0 0 0 0 0 0 
0 0 0 0 0 0 0 0 0 
0 0 0 0 0 0 0 0 0 
0 0 0 0 0 0 0 0 0 
0 0 0 0 0 0 0 0 0 
0 0 0 0 0 0 0 0 0 
0 0 0 0 0 0 0 0 0 
0 0 0 0 0 0 0 0 0 
0 0 0 0 0 0 0 0 0 
0 0 0 0 0 0 0 0 0 
0 0 0 0 0 0 0 0 0 
0 0 0 0 0 0 0 0 0 
0 0 0 0 0 0 0 0 0 
0 0 0 0 0 0 0 0 0 
0 0 0 0 0 0 0 0 0 
0 0 0 0 0 0 0 0 0 
0 0 0 0 0 0 0 0 0 
0 0 0 0 0 0 0 0 0 
0 0 0 0 0 0 0 0 0 
0 0 0 0 0 0 0 0 0 
0 0 0 0 0 0 0 0 0 
0 0 0 0 0 0 0 0 0 
0 0 0 0 0 0 0 0 0 
0 0 0 0 0 0 0 0 0 
0 0 0 0 0 0 0 0 0 
0 0 0 0 0 0 0 0 0 
0 0 0 0 0 0 0 0 0 
0 0 0 0 0 0 0 0 0 
0 0 0 0 0 0 0 0 0 
0 0 0 0 0 0 0 0 0 
0 0 0 0 0 0 0 0 0 
0 0 0 0 0 0 0 0 0 
0 0 0 0 0 0 0 0 0 
0 0 0 0 0 0 0 0 0 
0 0 0 0 0 0 0 0 0 
0 0 0 0 0 0 0 0 0 
0 0 0 0 0 0 0 0 0 
0 0 0 0 0 0 0 0 0 
0 0 0 0 0 0 0 0 0 
0 0 0 0 0 0 0 0 0 
0 0 0 0 0 0 0 0 0 
0 0 0 0 0 0 0 0 0 
0 0 0 0 0 0 0 0 0 
0 0 0 0 0 0 0 0 0 
0 0 0 0 0 0 0 
v 1 7351 double
0 0 0 0 0 0 0 0 0 
0 0 0 0 0 0 0 0 0 
0 0 0 0 0 0 0 0 0 
0 0 0 0 0 0 0 0 0 
0 0 0 0 0 0 0 0 0 
0 0 0 0 0 0 0 0 0 
0 0 0 0 0 0 0 0 0 
0 0 0 0 0 0 0 0 0 
0 0 0 0 0 0 0 0 0 
0 0 0 0 0 0 0 0 0 
0 0 0 0 0 0 0 0 0 
0 0 0 0 0 0 0 0 0 
0 0 0 0 0 0 0 0 0 
0 0 0 0 0 0 0 0 0 
0 0 0 0 0 0 0 0 0 
0 0 0 0 0 0 0 0 0 
0 0 0 0 0 0 0 0 0 
0 0 0 0 0 0 0 0 0 
0 0 0 0 0 0 0 0 0 
0 0 0 0 0 0 0 0 0 
0 0 0 0 0 0 0 0 0 
0 0 0 0 0 0 0 0 0 
0 0 0 0 0 0 0 0 0 
0 0 0 0 0 0 0 0 0 
0 0 0 0 0 0 0 0 0 
0 0 0 0 0 0 0 0 0 
0 0 0 0 0 0 0 0 0 
0 0 0 0 0 0 0 0 0 
0 0 0 0 0 0 0 0 0 
0 0 0 0 0 0 0 0 0 
0 0 0 0 0 0 0 0 0 
0 0 0 0 0 0 0 0 0 
0 0 0 0 0 0 0 0 0 
0 0 0 0 0 0 0 0 0 
0 0 0 0 0 0 0 0 0 
0 0 0 0 0 0 0 0 0 
0 0 0 0 0 0 0 0 0 
0 0 0 0 0 0 0 0 0 
0 0 0 0 0 0 0 0 0 
0 0 0 0 0 0 0 0 0 
0 0 0 0 0 0 0 0 0 
0 0 0 0 0 0 0 0 0 
0 0 0 0 0 0 0 0 0 
0 0 0 0 0 0 0 0 0 
0 0 0 0 0 0 0 0 0 
0 0 0 0 0 0 0 0 0 
0 0 0 0 0 0 0 0 0 
0 0 0 0 0 0 0 0 0 
0 0 0 0 0 0 0 0 0 
0 0 0 0 0 0 0 0 0 
0 0 0 0 0 0 0 0 0 
0 0 0 0 0 0 0 0 0 
0 0 0 0 0 0 0 0 0 
0 0 0 0 0 0 0 0 0 
0 0 0 0 0 0 0 0 0 
0 0 0 0 0 0 0 0 0 
0 0 0 0 0 0 0 0 0 
0 0 0 0 0 0 0 0 0 
0 0 0 0 0 0 0 0 0 
0 0 0 0 0 0 0 0 0 
0 0 0 0 0 0 0 0 0 
0 0 0 0 0 0 0 0 0 
0 0 0 0 0 0 0 0 0 
0 0 0 0 0 0 0 0 0 
0 0 0 0 0 0 0 0 0 
0 0 0 0 0 0 0 0 0 
0 0 0 0 0 0 0 0 0 
0 0 0 0 0 0 0 0 0 
0 0 0 0 0 0 0 0 0 
0 0 0 0 0 0 0 0 0 
0 0 0 0 0 0 0 0 0 
0 0 0 0 0 0 0 0 0 
0 0 0 0 0 0 0 0 0 
0 0 0 0 0 0 0 0 0 
0 0 0 0 0 0 0 0 0 
0 0 0 0 0 0 0 0 0 
0 0 0 0 0 0 0 0 0 
0 0 0 0 0 0 0 0 0 
0 0 0 0 0 0 0 0 0 
0 0 0 0 0 0 0 0 0 
0 0 0 0 0 0 0 0 0 
0 0 0 0 0 0 0 0 0 
0 0 0 0 0 0 0 0 0 
0 0 0 0 0 0 0 0 0 
0 0 0 0 0 0 0 0 0 
0 0 0 0 0 0 0 0 0 
0 0 0 0 0 0 0 0 0 
0 0 0 0 0 0 0 0 0 
0 0 0 0 0 0 0 0 0 
0 0 0 0 0 0 0 0 0 
0 0 0 0 0 0 0 0 0 
0 0 0 0 0 0 0 0 0 
0 0 0 0 0 0 0 0 0 
0 0 0 0 0 0 0 0 0 
0 0 0 0 0 0 0 0 0 
0 0 0 0 0 0 0 0 0 
0 0 0 0 0 0 0 0 0 
0 0 0 0 0 0 0 0 0 
0 0 0 0 0 0 0 0 0 
0 0 0 0 0 0 0 0 0 
0 0 0 0 0 0 0 0 0 
0 0 0 0 0 0 0 0 0 
0 0 0 0 0 0 0 0 0 
0 0 0 0 0 0 0 0 0 
0 0 0 0 0 0 0 0 0 
0 0 0 0 0 0 0 0 0 
0 0 0 0 0 0 0 0 0 
0 0 0 0 0 0 0 0 0 
0 0 0 0 0 0 0 0 0 
0 0 0 0 0 0 0 0 0 
0 0 0 0 0 0 0 0 0 
0 0 0 0 0 0 0 0 0 
0 0 0 0 0 0 0 0 0 
0 0 0 0 0 0 0 0 0 
0 0 0 0 0 0 0 0 0 
0 0 0 0 0 0 0 0 0 
0 0 0 0 0 0 0 0 0 
0 0 0 0 0 0 0 0 0 
0 0 0 0 0 0 0 0 0 
0 0 0 0 0 0 0 0 0 
0 0 0 0 0 0 0 0 0 
0 0 0 0 0 0 0 0 0 
0 0 0 0 0 0 0 0 0 
0 0 0 0 0 0 0 0 0 
0 0 0 0 0 0 0 0 0 
0 0 0 0 0 0 0 0 0 
0 0 0 0 0 0 0 0 0 
0 0 0 0 0 0 0 0 0 
0 0 0 0 0 0 0 0 0 
0 0 0 0 0 0 0 0 0 
0 0 0 0 0 0 0 0 0 
0 0 0 0 0 0 0 0 0 
0 0 0 0 0 0 0 0 0 
0 0 0 0 0 0 0 0 0 
0 0 0 0 0 0 0 0 0 
0 0 0 0 0 0 0 0 0 
0 0 0 0 0 0 0 0 0 
0 0 0 0 0 0 0 0 0 
0 0 0 0 0 0 0 0 0 
0 0 0 0 0 0 0 0 0 
0 0 0 0 0 0 0 0 0 
0 0 0 0 0 0 0 0 0 
0 0 0 0 0 0 0 0 0 
0 0 0 0 0 0 0 0 0 
0 0 0 0 0 0 0 0 0 
0 0 0 0 0 0 0 0 0 
0 0 0 0 0 0 0 0 0 
0 0 0 0 0 0 0 0 0 
0 0 0 0 0 0 0 0 0 
0 0 0 0 0 0 0 0 0 
0 0 0 0 0 0 0 0 0 
0 0 0 0 0 0 0 0 0 
0 0 0 0 0 0 0 0 0 
0 0 0 0 0 0 0 0 0 
0 0 0 0 0 0 0 0 0 
0 0 0 0 0 0 0 0 0 
0 0 0 0 0 0 0 0 0 
0 0 0 0 0 0 0 0 0 
0 0 0 0 0 0 0 0 0 
0 0 0 0 0 0 0 0 0 
0 0 0 0 0 0 0 0 0 
0 0 0 0 0 0 0 0 0 
0 0 0 0 0 0 0 0 0 
0 0 0 0 0 0 0 0 0 
0 0 0 0 0 0 0 0 0 
0 0 0 0 0 0 0 0 0 
0 0 0 0 0 0 0 0 0 
0 0 0 0 0 0 0 0 0 
0 0 0 0 0 0 0 0 0 
0 0 0 0 0 0 0 0 0 
0 0 0 0 0 0 0 0 0 
0 0 0 0 0 0 0 0 0 
0 0 0 0 0 0 0 0 0 
0 0 0 0 0 0 0 0 0 
0 0 0 0 0 0 0 0 0 
0 0 0 0 0 0 0 0 0 
0 0 0 0 0 0 0 0 0 
0 0 0 0 0 0 0 0 0 
0 0 0 0 0 0 0 0 0 
0 0 0 0 0 0 0 0 0 
0 0 0 0 0 0 0 0 0 
0 0 0 0 0 0 0 0 0 
0 0 0 0 0 0 0 0 0 
0 0 0 0 0 0 0 0 0 
0 0 0 0 0 0 0 0 0 
0 0 0 0 0 0 0 0 0 
0 0 0 0 0 0 0 0 0 
0 0 0 0 0 0 0 0 0 
0 0 0 0 0 0 0 0 0 
0 0 0 0 0 0 0 0 0 
0 0 0 0 0 0 0 0 0 
0 0 0 0 0 0 0 0 0 
0 0 0 0 0 0 0 0 0 
0 0 0 0 0 0 0 0 0 
0 0 0 0 0 0 0 0 0 
0 0 0 0 0 0 0 0 0 
0 0 0 0 0 0 0 0 0 
0 0 0 0 0 0 0 0 0 
0 0 0 0 0 0 0 0 0 
0 0 0 0 0 0 0 0 0 
0 0 0 0 0 0 0 0 0 
0 0 0 0 0 0 0 0 0 
0 0 0 0 0 0 0 0 0 
0 0 0 0 0 0 0 0 0 
0 0 0 0 0 0 0 0 0 
0 0 0 0 0 0 0 0 0 
0 0 0 0 0 0 0 0 0 
0 0 0 0 0 0 0 0 0 
0 0 0 0 0 0 0 0 0 
0 0 0 0 0 0 0 0 0 
0 0 0 0 0 0 0 0 0 
0 0 0 0 0 0 0 0 0 
0 0 0 0 0 0 0 0 0 
0 0 0 0 0 0 0 0 0 
0 0 0 0 0 0 0 0 0 
0 0 0 0 0 0 0 0 0 
0 0 0 0 0 0 0 0 0 
0 0 0 0 0 0 0 0 0 
0 0 0 0 0 0 0 0 0 
0 0 0 0 0 0 0 0 0 
0 0 0 0 0 0 0 0 0 
0 0 0 0 0 0 0 0 0 
0 0 0 0 0 0 0 0 0 
0 0 0 0 0 0 0 0 0 
0 0 0 0 0 0 0 0 0 
0 0 0 0 0 0 0 0 0 
0 0 0 0 0 0 0 0 0 
0 0 0 0 0 0 0 0 0 
0 0 0 0 0 0 0 0 0 
0 0 0 0 0 0 0 0 0 
0 0 0 0 0 0 0 0 0 
0 0 0 0 0 0 0 0 0 
0 0 0 0 0 0 0 0 0 
0 0 0 0 0 0 0 0 0 
0 0 0 0 0 0 0 0 0 
0 0 0 0 0 0 0 0 0 
0 0 0 0 0 0 0 0 0 
0 0 0 0 0 0 0 0 0 
0 0 0 0 0 0 0 0 0 
0 0 0 0 0 0 0 0 0 
0 0 0 0 0 0 0 0 0 
0 0 0 0 0 0 0 0 0 
0 0 0 0 0 0 0 0 0 
0 0 0 0 0 0 0 0 0 
0 0 0 0 0 0 0 0 0 
0 0 0 0 0 0 0 0 0 
0 0 0 0 0 0 0 0 0 
0 0 0 0 0 0 0 0 0 
0 0 0 0 0 0 0 0 0 
0 0 0 0 0 0 0 0 0 
0 0 0 0 0 0 0 0 0 
0 0 0 0 0 0 0 0 0 
0 0 0 0 0 0 0 0 0 
0 0 0 0 0 0 0 0 0 
0 0 0 0 0 0 0 0 0 
0 0 0 0 0 0 0 0 0 
0 0 0 0 0 0 0 0 0 
0 0 0 0 0 0 0 0 0 
0 0 0 0 0 0 0 0 0 
0 0 0 0 0 0 0 0 0 
0 0 0 0 0 0 0 0 0 
0 0 0 0 0 0 0 0 0 
0 0 0 0 0 0 0 0 0 
0 0 0 0 0 0 0 0 0 
0 0 0 0 0 0 0 0 0 
0 0 0 0 0 0 0 0 0 
0 0 0 0 0 0 0 0 0 
0 0 0 0 0 0 0 0 0 
0 0 0 0 0 0 0 0 0 
0 0 0 0 0 0 0 0 0 
0 0 0 0 0 0 0 0 0 
0 0 0 0 0 0 0 0 0 
0 0 0 0 0 0 0 0 0 
0 0 0 0 0 0 0 0 0 
0 0 0 0 0 0 0 0 0 
0 0 0 0 0 0 0 0 0 
0 0 0 0 0 0 0 0 0 
0 0 0 0 0 0 0 0 0 
0 0 0 0 0 0 0 0 0 
0 0 0 0 0 0 0 0 0 
0 0 0 0 0 0 0 0 0 
0 0 0 0 0 0 0 0 0 
0 0 0 0 0 0 0 0 0 
0 0 0 0 0 0 0 0 0 
0 0 0 0 0 0 0 0 0 
0 0 0 0 0 0 0 0 0 
0 0 0 0 0 0 0 0 0 
0 0 0 0 0 0 0 0 0 
0 0 0 0 0 0 0 0 0 
0 0 0 0 0 0 0 0 0 
0 0 0 0 0 0 0 0 0 
0 0 0 0 0 0 0 0 0 
0 0 0 0 0 0 0 0 0 
0 0 0 0 0 0 0 0 0 
0 0 0 0 0 0 0 0 0 
0 0 0 0 0 0 0 0 0 
0 0 0 0 0 0 0 0 0 
0 0 0 0 0 0 0 0 0 
0 0 0 0 0 0 0 0 0 
0 0 0 0 0 0 0 0 0 
0 0 0 0 0 0 0 0 0 
0 0 0 0 0 0 0 0 0 
0 0 0 0 0 0 0 0 0 
0 0 0 0 0 0 0 0 0 
0 0 0 0 0 0 0 0 0 
0 0 0 0 0 0 0 0 0 
0 0 0 0 0 0 0 0 0 
0 0 0 0 0 0 0 0 0 
0 0 0 0 0 0 0 0 0 
0 0 0 0 0 0 0 0 0 
0 0 0 0 0 0 0 0 0 
0 0 0 0 0 0 0 0 0 
0 0 0 0 0 0 0 0 0 
0 0 0 0 0 0 0 0 0 
0 0 0 0 0 0 0 0 0 
0 0 0 0 0 0 0 0 0 
0 0 0 0 0 0 0 0 0 
0 0 0 0 0 0 0 0 0 
0 0 0 0 0 0 0 0 0 
0 0 0 0 0 0 0 0 0 
0 0 0 0 0 0 0 0 0 
0 0 0 0 0 0 0 0 0 
0 0 0 0 0 0 0 0 0 
0 0 0 0 0 0 0 0 0 
0 0 0 0 0 0 0 0 0 
0 0 0 0 0 0 0 0 0 
0 0 0 0 0 0 0 0 0 
0 0 0 0 0 0 0 0 0 
0 0 0 0 0 0 0 0 0 
0 0 0 0 0 0 0 0 0 
0 0 0 0 0 0 0 0 0 
0 0 0 0 0 0 0 0 0 
0 0 0 0 0 0 0 0 0 
0 0 0 0 0 0 0 0 0 
0 0 0 0 0 0 0 0 0 
0 0 0 0 0 0 0 0 0 
0 0 0 0 0 0 0 0 0 
0 0 0 0 0 0 0 0 0 
0 0 0 0 0 0 0 0 0 
0 0 0 0 0 0 0 0 0 
0 0 0 0 0 0 0 0 0 
0 0 0 0 0 0 0 0 0 
0 0 0 0 0 0 0 0 0 
0 0 0 0 0 0 0 0 0 
0 0 0 0 0 0 0 0 0 
0 0 0 0 0 0 0 0 0 
0 0 0 0 0 0 0 0 0 
0 0 0 0 0 0 0 0 0 
0 0 0 0 0 0 0 0 0 
0 0 0 0 0 0 0 0 0 
0 0 0 0 0 0 0 0 0 
0 0 0 0 0 0 0 0 0 
0 0 0 0 0 0 0 0 0 
0 0 0 0 0 0 0 0 0 
0 0 0 0 0 0 0 0 0 
0 0 0 0 0 0 0 0 0 
0 0 0 0 0 0 0 0 0 
0 0 0 0 0 0 0 0 0 
0 0 0 0 0 0 0 0 0 
0 0 0 0 0 0 0 0 0 
0 0 0 0 0 0 0 0 0 
0 0 0 0 0 0 0 0 0 
0 0 0 0 0 0 0 0 0 
0 0 0 0 0 0 0 0 0 
0 0 0 0 0 0 0 0 0 
0 0 0 0 0 0 0 0 0 
0 0 0 0 0 0 0 0 0 
0 0 0 0 0 0 0 0 0 
0 0 0 0 0 0 0 0 0 
0 0 0 0 0 0 0 0 0 
0 0 0 0 0 0 0 0 0 
0 0 0 0 0 0 0 0 0 
0 0 0 0 0 0 0 0 0 
0 0 0 0 0 0 0 0 0 
0 0 0 0 0 0 0 0 0 
0 0 0 0 0 0 0 0 0 
0 0 0 0 0 0 0 0 0 
0 0 0 0 0 0 0 0 0 
0 0 0 0 0 0 0 0 0 
0 0 0 0 0 0 0 0 0 
0 0 0 0 0 0 0 0 0 
0 0 0 0 0 0 0 0 0 
0 0 0 0 0 0 0 0 0 
0 0 0 0 0 0 0 0 0 
0 0 0 0 0 0 0 0 0 
0 0 0 0 0 0 0 0 0 
0 0 0 0 0 0 0 0 0 
0 0 0 0 0 0 0 0 0 
0 0 0 0 0 0 0 0 0 
0 0 0 0 0 0 0 0 0 
0 0 0 0 0 0 0 0 0 
0 0 0 0 0 0 0 0 0 
0 0 0 0 0 0 0 0 0 
0 0 0 0 0 0 0 0 0 
0 0 0 0 0 0 0 0 0 
0 0 0 0 0 0 0 0 0 
0 0 0 0 0 0 0 0 0 
0 0 0 0 0 0 0 0 0 
0 0 0 0 0 0 0 0 0 
0 0 0 0 0 0 0 0 0 
0 0 0 0 0 0 0 0 0 
0 0 0 0 0 0 0 0 0 
0 0 0 0 0 0 0 0 0 
0 0 0 0 0 0 0 0 0 
0 0 0 0 0 0 0 0 0 
0 0 0 0 0 0 0 0 0 
0 0 0 0 0 0 0 0 0 
0 0 0 0 0 0 0 0 0 
0 0 0 0 0 0 0 0 0 
0 0 0 0 0 0 0 0 0 
0 0 0 0 0 0 0 0 0 
0 0 0 0 0 0 0 0 0 
0 0 0 0 0 0 0 0 0 
0 0 0 0 0 0 0 0 0 
0 0 0 0 0 0 0 0 0 
0 0 0 0 0 0 0 0 0 
0 0 0 0 0 0 0 0 0 
0 0 0 0 0 0 0 0 0 
0 0 0 0 0 0 0 0 0 
0 0 0 0 0 0 0 0 0 
0 0 0 0 0 0 0 0 0 
0 0 0 0 0 0 0 0 0 
0 0 0 0 0 0 0 0 0 
0 0 0 0 0 0 0 0 0 
0 0 0 0 0 0 0 0 0 
0 0 0 0 0 0 0 0 0 
0 0 0 0 0 0 0 0 0 
0 0 0 0 0 0 0 0 0 
0 0 0 0 0 0 0 0 0 
0 0 0 0 0 0 0 0 0 
0 0 0 0 0 0 0 0 0 
0 0 0 0 0 0 0 0 0 
0 0 0 0 0 0 0 0 0 
0 0 0 0 0 0 0 0 0 
0 0 0 0 0 0 0 0 0 
0 0 0 0 0 0 0 0 0 
0 0 0 0 0 0 0 0 0 
0 0 0 0 0 0 0 0 0 
0 0 0 0 0 0 0 0 0 
0 0 0 0 0 0 0 0 0 
0 0 0 0 0 0 0 0 0 
0 0 0 0 0 0 0 0 0 
0 0 0 0 0 0 0 0 0 
0 0 0 0 0 0 0 0 0 
0 0 0 0 0 0 0 0 0 
0 0 0 0 0 0 0 0 0 
0 0 0 0 0 0 0 0 0 
0 0 0 0 0 0 0 0 0 
0 0 0 0 0 0 0 0 0 
0 0 0 0 0 0 0 0 0 
0 0 0 0 0 0 0 0 0 
0 0 0 0 0 0 0 0 0 
0 0 0 0 0 0 0 0 0 
0 0 0 0 0 0 0 0 0 
0 0 0 0 0 0 0 0 0 
0 0 0 0 0 0 0 0 0 
0 0 0 0 0 0 0 0 0 
0 0 0 0 0 0 0 0 0 
0 0 0 0 0 0 0 0 0 
0 0 0 0 0 0 0 0 0 
0 0 0 0 0 0 0 0 0 
0 0 0 0 0 0 0 0 0 
0 0 0 0 0 0 0 0 0 
0 0 0 0 0 0 0 0 0 
0 0 0 0 0 0 0 0 0 
0 0 0 0 0 0 0 0 0 
0 0 0 0 0 0 0 0 0 
0 0 0 0 0 0 0 0 0 
0 0 0 0 0 0 0 0 0 
0 0 0 0 0 0 0 0 0 
0 0 0 0 0 0 0 0 0 
0 0 0 0 0 0 0 0 0 
0 0 0 0 0 0 0 0 0 
0 0 0 0 0 0 0 0 0 
0 0 0 0 0 0 0 0 0 
0 0 0 0 0 0 0 0 0 
0 0 0 0 0 0 0 0 0 
0 0 0 0 0 0 0 0 0 
0 0 0 0 0 0 0 0 0 
0 0 0 0 0 0 0 0 0 
0 0 0 0 0 0 0 0 0 
0 0 0 0 0 0 0 0 0 
0 0 0 0 0 0 0 0 0 
0 0 0 0 0 0 0 0 0 
0 0 0 0 0 0 0 0 0 
0 0 0 0 0 0 0 0 0 
0 0 0 0 0 0 0 0 0 
0 0 0 0 0 0 0 0 0 
0 0 0 0 0 0 0 0 0 
0 0 0 0 0 0 0 0 0 
0 0 0 0 0 0 0 0 0 
0 0 0 0 0 0 0 0 0 
0 0 0 0 0 0 0 0 0 
0 0 0 0 0 0 0 0 0 
0 0 0 0 0 0 0 0 0 
0 0 0 0 0 0 0 0 0 
0 0 0 0 0 0 0 0 0 
0 0 0 0 0 0 0 0 0 
0 0 0 0 0 0 0 0 0 
0 0 0 0 0 0 0 0 0 
0 0 0 0 0 0 0 0 0 
0 0 0 0 0 0 0 0 0 
0 0 0 0 0 0 0 0 0 
0 0 0 0 0 0 0 0 0 
0 0 0 0 0 0 0 0 0 
0 0 0 0 0 0 0 0 0 
0 0 0 0 0 0 0 0 0 
0 0 0 0 0 0 0 0 0 
0 0 0 0 0 0 0 0 0 
0 0 0 0 0 0 0 0 0 
0 0 0 0 0 0 0 0 0 
0 0 0 0 0 0 0 0 0 
0 0 0 0 0 0 0 0 0 
0 0 0 0 0 0 0 0 0 
0 0 0 0 0 0 0 0 0 
0 0 0 0 0 0 0 0 0 
0 0 0 0 0 0 0 0 0 
0 0 0 0 0 0 0 0 0 
0 0 0 0 0 0 0 0 0 
0 0 0 0 0 0 0 0 0 
0 0 0 0 0 0 0 0 0 
0 0 0 0 0 0 0 0 0 
0 0 0 0 0 0 0 0 0 
0 0 0 0 0 0 0 0 0 
0 0 0 0 0 0 0 0 0 
0 0 0 0 0 0 0 0 0 
0 0 0 0 0 0 0 0 0 
0 0 0 0 0 0 0 0 0 
0 0 0 0 0 0 0 0 0 
0 0 0 0 0 0 0 0 0 
0 0 0 0 0 0 0 0 0 
0 0 0 0 0 0 0 0 0 
0 0 0 0 0 0 0 0 0 
0 0 0 0 0 0 0 0 0 
0 0 0 0 0 0 0 0 0 
0 0 0 0 0 0 0 0 0 
0 0 0 0 0 0 0 0 0 
0 0 0 0 0 0 0 0 0 
0 0 0 0 0 0 0 0 0 
0 0 0 0 0 0 0 0 0 
0 0 0 0 0 0 0 0 0 
0 0 0 0 0 0 0 0 0 
0 0 0 0 0 0 0 0 0 
0 0 0 0 0 0 0 0 0 
0 0 0 0 0 0 0 0 0 
0 0 0 0 0 0 0 0 0 
0 0 0 0 0 0 0 0 0 
0 0 0 0 0 0 0 0 0 
0 0 0 0 0 0 0 0 0 
0 0 0 0 0 0 0 0 0 
0 0 0 0 0 0 0 0 0 
0 0 0 0 0 0 0 0 0 
0 0 0 0 0 0 0 0 0 
0 0 0 0 0 0 0 0 0 
0 0 0 0 0 0 0 0 0 
0 0 0 0 0 0 0 0 0 
0 0 0 0 0 0 0 0 0 
0 0 0 0 0 0 0 0 0 
0 0 0 0 0 0 0 0 0 
0 0 0 0 0 0 0 0 0 
0 0 0 0 0 0 0 0 0 
0 0 0 0 0 0 0 0 0 
0 0 0 0 0 0 0 0 0 
0 0 0 0 0 0 0 0 0 
0 0 0 0 0 0 0 0 0 
0 0 0 0 0 0 0 0 0 
0 0 0 0 0 0 0 0 0 
0 0 0 0 0 0 0 0 0 
0 0 0 0 0 0 0 0 0 
0 0 0 0 0 0 0 0 0 
0 0 0 0 0 0 0 0 0 
0 0 0 0 0 0 0 0 0 
0 0 0 0 0 0 0 0 0 
0 0 0 0 0 0 0 0 0 
0 0 0 0 0 0 0 0 0 
0 0 0 0 0 0 0 0 0 
0 0 0 0 0 0 0 0 0 
0 0 0 0 0 0 0 0 0 
0 0 0 0 0 0 0 0 0 
0 0 0 0 0 0 0 0 0 
0 0 0 0 0 0 0 0 0 
0 0 0 0 0 0 0 0 0 
0 0 0 0 0 0 0 0 0 
0 0 0 0 0 0 0 0 0 
0 0 0 0 0 0 0 0 0 
0 0 0 0 0 0 0 0 0 
0 0 0 0 0 0 0 0 0 
0 0 0 0 0 0 0 0 0 
0 0 0 0 0 0 0 0 0 
0 0 0 0 0 0 0 0 0 
0 0 0 0 0 0 0 0 0 
0 0 0 0 0 0 0 0 0 
0 0 0 0 0 0 0 0 0 
0 0 0 0 0 0 0 0 0 
0 0 0 0 0 0 0 0 0 
0 0 0 0 0 0 0 0 0 
0 0 0 0 0 0 0 0 0 
0 0 0 0 0 0 0 0 0 
0 0 0 0 0 0 0 0 0 
0 0 0 0 0 0 0 0 0 
0 0 0 0 0 0 0 0 0 
0 0 0 0 0 0 0 0 0 
0 0 0 0 0 0 0 0 0 
0 0 0 0 0 0 0 0 0 
0 0 0 0 0 0 0 0 0 
0 0 0 0 0 0 0 0 0 
0 0 0 0 0 0 0 0 0 
0 0 0 0 0 0 0 0 0 
0 0 0 0 0 0 0 0 0 
0 0 0 0 0 0 0 0 0 
0 0 0 0 0 0 0 0 0 
0 0 0 0 0 0 0 0 0 
0 0 0 0 0 0 0 0 0 
0 0 0 0 0 0 0 0 0 
0 0 0 0 0 0 0 0 0 
0 0 0 0 0 0 0 0 0 
0 0 0 0 0 0 0 0 0 
0 0 0 0 0 0 0 0 0 
0 0 0 0 0 0 0 0 0 
0 0 0 0 0 0 0 0 0 
0 0 0 0 0 0 0 0 0 
0 0 0 0 0 0 0 0 0 
0 0 0 0 0 0 0 0 0 
0 0 0 0 0 0 0 0 0 
0 0 0 0 0 0 0 0 0 
0 0 0 0 0 0 0 0 0 
0 0 0 0 0 0 0 0 0 
0 0 0 0 0 0 0 0 0 
0 0 0 0 0 0 0 0 0 
0 0 0 0 0 0 0 0 0 
0 0 0 0 0 0 0 0 0 
0 0 0 0 0 0 0 0 0 
0 0 0 0 0 0 0 0 0 
0 0 0 0 0 0 0 0 0 
0 0 0 0 0 0 0 0 0 
0 0 0 0 0 0 0 0 0 
0 0 0 0 0 0 0 0 0 
0 0 0 0 0 0 0 0 0 
0 0 0 0 0 0 0 0 0 
0 0 0 0 0 0 0 0 0 
0 0 0 0 0 0 0 0 0 
0 0 0 0 0 0 0 0 0 
0 0 0 0 0 0 0 0 0 
0 0 0 0 0 0 0 0 0 
0 0 0 0 0 0 0 0 0 
0 0 0 0 0 0 0 0 0 
0 0 0 0 0 0 0 0 0 
0 0 0 0 0 0 0 0 0 
0 0 0 0 0 0 0 0 0 
0 0 0 0 0 0 0 0 0 
0 0 0 0 0 0 0 0 0 
0 0 0 0 0 0 0 0 0 
0 0 0 0 0 0 0 0 0 
0 0 0 0 0 0 0 0 0 
0 0 0 0 0 0 0 0 0 
0 0 0 0 0 0 0 0 0 
0 0 0 0 0 0 0 0 0 
0 0 0 0 0 0 0 0 0 
0 0 0 0 0 0 0 0 0 
0 0 0 0 0 0 0 0 0 
0 0 0 0 0 0 0 0 0 
0 0 0 0 0 0 0 0 0 
0 0 0 0 0 0 0 0 0 
0 0 0 0 0 0 0 0 0 
0 0 0 0 0 0 0 0 0 
0 0 0 0 0 0 0 0 0 
0 0 0 0 0 0 0 0 0 
0 0 0 0 0 0 0 0 0 
0 0 0 0 0 0 0 0 0 
0 0 0 0 0 0 0 0 0 
0 0 0 0 0 0 0 0 0 
0 0 0 0 0 0 0 0 0 
0 0 0 0 0 0 0 0 0 
0 0 0 0 0 0 0 0 0 
0 0 0 0 0 0 0 0 0 
0 0 0 0 0 0 0 0 0 
0 0 0 0 0 0 0 0 0 
0 0 0 0 0 0 0 0 0 
0 0 0 0 0 0 0 0 0 
0 0 0 0 0 0 0 0 0 
0 0 0 0 0 0 0 0 0 
0 0 0 0 0 0 0 0 0 
0 0 0 0 0 0 0 0 0 
0 0 0 0 0 0 0 0 0 
0 0 0 0 0 0 0 0 0 
0 0 0 0 0 0 0 0 0 
0 0 0 0 0 0 0 0 0 
0 0 0 0 0 0 0 0 0 
0 0 0 0 0 0 0 0 0 
0 0 0 0 0 0 0 0 0 
0 0 0 0 0 0 0 0 0 
0 0 0 0 0 0 0 0 0 
0 0 0 0 0 0 0 0 0 
0 0 0 0 0 0 0 0 0 
0 0 0 0 0 0 0 0 0 
0 0 0 0 0 0 0 0 0 
0 0 0 0 0 0 0 0 0 
0 0 0 0 0 0 0 0 0 
0 0 0 0 0 0 0 0 0 
0 0 0 0 0 0 0 0 0 
0 0 0 0 0 0 0 0 0 
0 0 0 0 0 0 0 0 0 
0 0 0 0 0 0 0 0 0 
0 0 0 0 0 0 0 0 0 
0 0 0 0 0 0 0 0 0 
0 0 0 0 0 0 0 0 0 
0 0 0 0 0 0 0 0 0 
0 0 0 0 0 0 0 0 0 
0 0 0 0 0 0 0 0 0 
0 0 0 0 0 0 0 0 0 
0 0 0 0 0 0 0 0 0 
0 0 0 0 0 0 0 0 0 
0 0 0 0 0 0 0 0 0 
0 0 0 0 0 0 0 0 0 
0 0 0 0 0 0 0 0 0 
0 0 0 0 0 0 0 0 0 
0 0 0 0 0 0 0 0 0 
0 0 0 0 0 0 0 0 0 
0 0 0 0 0 0 0 0 0 
0 0 0 0 0 0 0 0 0 
0 0 0 0 0 0 0 0 0 
0 0 0 0 0 0 0 0 0 
0 0 0 0 0 0 0 0 0 
0 0 0 0 0 0 0 0 0 
0 0 0 0 0 0 0 0 0 
0 0 0 0 0 0 0 0 0 
0 0 0 0 0 0 0 0 0 
0 0 0 0 0 0 0 0 0 
0 0 0 0 0 0 0 0 0 
0 0 0 0 0 0 0 0 0 
0 0 0 0 0 0 0 0 0 
0 0 0 0 0 0 0 0 0 
0 0 0 0 0 0 0 0 0 
0 0 0 0 0 0 0 0 0 
0 0 0 0 0 0 0 0 0 
0 0 0 0 0 0 0 0 0 
0 0 0 0 0 0 0 0 0 
0 0 0 0 0 0 0 0 0 
0 0 0 0 0 0 0 0 0 
0 0 0 0 0 0 0 0 0 
0 0 0 0 0 0 0 0 0 
0 0 0 0 0 0 0 0 0 
0 0 0 0 0 0 0 0 0 
0 0 0 0 0 0 0 0 0 
0 0 0 0 0 0 0 0 0 
0 0 0 0 0 0 0 0 0 
0 0 0 0 0 0 0 0 0 
0 0 0 0 0 0 0 0 0 
0 0 0 0 0 0 0 0 0 
0 0 0 0 0 0 0 0 0 
0 0 0 0 0 0 0 0 0 
0 0 0 0 0 0 0 0 0 
0 0 0 0 0 0 0 0 0 
0 0 0 0 0 0 0 0 0 
0 0 0 0 0 0 0 0 0 
0 0 0 0 0 0 0 0 0 
0 0 0 0 0 0 0 0 0 
0 0 0 0 0 0 0 0 0 
0 0 0 0 0 0 0 0 0 
0 0 0 0 0 0 0 0 0 
0 0 0 0 0 0 0 0 0 
0 0 0 0 0 0 0 0 0 
0 0 0 0 0 0 0 0 0 
0 0 0 0 0 0 0 0 0 
0 0 0 0 0 0 0 0 0 
0 0 0 0 0 0 0 0 0 
0 0 0 0 0 0 0 0 0 
0 0 0 0 0 0 0 0 0 
0 0 0 0 0 0 0 0 0 
0 0 0 0 0 0 0 0 0 
0 0 0 0 0 0 0 0 0 
0 0 0 0 0 0 0 0 0 
0 0 0 0 0 0 0 0 0 
0 0 0 0 0 0 0 0 0 
0 0 0 0 0 0 0 0 0 
0 0 0 0 0 0 0 0 0 
0 0 0 0 0 0 0 0 0 
0 0 0 0 0 0 0 0 0 
0 0 0 0 0 0 0 0 0 
0 0 0 0 0 0 0 0 0 
0 0 0 0 0 0 0 0 0 
0 0 0 0 0 0 0 0 0 
0 0 0 0 0 0 0 0 0 
0 0 0 0 0 0 0 0 0 
0 0 0 0 0 0 0 0 0 
0 0 0 0 0 0 0 0 0 
0 0 0 0 0 0 0 0 0 
0 0 0 0 0 0 0 0 0 
0 0 0 0 0 0 0 0 0 
0 0 0 0 0 0 0 0 0 
0 0 0 0 0 0 0 0 0 
0 0 0 0 0 0 0 0 0 
0 0 0 0 0 0 0 0 0 
0 0 0 0 0 0 0 0 0 
0 0 0 0 0 0 0 0 0 
0 0 0 0 0 0 0 0 0 
0 0 0 0 0 0 0 0 0 
0 0 0 0 0 0 0 0 0 
0 0 0 0 0 0 0 0 0 
0 0 0 0 0 0 0 0 0 
0 0 0 0 0 0 0 0 0 
0 0 0 0 0 0 0 0 0 
0 0 0 0 0 0 0 0 0 
0 0 0 0 0 0 0 0 0 
0 0 0 0 0 0 0 0 0 
0 0 0 0 0 0 0 0 0 
0 0 0 0 0 0 0 0 0 
0 0 0 0 0 0 0 0 0 
0 0 0 0 0 0 0 0 0 
0 0 0 0 0 0 0 0 0 
0 0 0 0 0 0 0 0 0 
0 0 0 0 0 0 0 0 0 
0 0 0 0 0 0 0 0 0 
0 0 0 0 0 0 0 0 0 
0 0 0 0 0 0 0 0 0 
0 0 0 0 0 0 0 0 0 
0 0 0 0 0 0 0 
w 1 7351 double
0 0 0 0 0 0 0 0 0 
0 0 0 0 0 0 0 0 0 
0 0 0 0 0 0 0 0 0 
0 0 0 0 0 0 0 0 0 
0 0 0 0 0 0 0 0 0 
0 0 0 0 0 0 0 0 0 
0 0 0 0 0 0 0 0 0 
0 0 0 0 0 0 0 0 0 
0 0 0 0 0 0 0 0 0 
0 0 0 0 0 0 0 0 0 
0 0 0 0 0 0 0 0 0 
0 0 0 0 0 0 0 0 0 
0 0 0 0 0 0 0 0 0 
0 0 0 0 0 0 0 0 0 
0 0 0 0 0 0 0 0 0 
0 0 0 0 0 0 0 0 0 
0 0 0 0 0 0 0 0 0 
0 0 0 0 0 0 0 0 0 
0 0 0 0 0 0 0 0 0 
0 0 0 0 0 0 0 0 0 
0 0 0 0 0 0 0 0 0 
0 0 0 0 0 0 0 0 0 
0 0 0 0 0 0 0 0 0 
0 0 0 0 0 0 0 0 0 
0 0 0 0 0 0 0 0 0 
0 0 0 0 0 0 0 0 0 
0 0 0 0 0 0 0 0 0 
0 0 0 0 0 0 0 0 0 
0 0 0 0 0 0 0 0 0 
0 0 0 0 0 0 0 0 0 
0 0 0 0 0 0 0 0 0 
0 0 0 0 0 0 0 0 0 
0 0 0 0 0 0 0 0 0 
0 0 0 0 0 0 0 0 0 
0 0 0 0 0 0 0 0 0 
0 0 0 0 0 0 0 0 0 
0 0 0 0 0 0 0 0 0 
0 0 0 0 0 0 0 0 0 
0 0 0 0 0 0 0 0 0 
0 0 0 0 0 0 0 0 0 
0 0 0 0 0 0 0 0 0 
0 0 0 0 0 0 0 0 0 
0 0 0 0 0 0 0 0 0 
0 0 0 0 0 0 0 0 0 
0 0 0 0 0 0 0 0 0 
0 0 0 0 0 0 0 0 0 
0 0 0 0 0 0 0 0 0 
0 0 0 0 0 0 0 0 0 
0 0 0 0 0 0 0 0 0 
0 0 0 0 0 0 0 0 0 
0 0 0 0 0 0 0 0 0 
0 0 0 0 0 0 0 0 0 
0 0 0 0 0 0 0 0 0 
0 0 0 0 0 0 0 0 0 
0 0 0 0 0 0 0 0 0 
0 0 0 0 0 0 0 0 0 
0 0 0 0 0 0 0 0 0 
0 0 0 0 0 0 0 0 0 
0 0 0 0 0 0 0 0 0 
0 0 0 0 0 0 0 0 0 
0 0 0 0 0 0 0 0 0 
0 0 0 0 0 0 0 0 0 
0 0 0 0 0 0 0 0 0 
0 0 0 0 0 0 0 0 0 
0 0 0 0 0 0 0 0 0 
0 0 0 0 0 0 0 0 0 
0 0 0 0 0 0 0 0 0 
0 0 0 0 0 0 0 0 0 
0 0 0 0 0 0 0 0 0 
0 0 0 0 0 0 0 0 0 
0 0 0 0 0 0 0 0 0 
0 0 0 0 0 0 0 0 0 
0 0 0 0 0 0 0 0 0 
0 0 0 0 0 0 0 0 0 
0 0 0 0 0 0 0 0 0 
0 0 0 0 0 0 0 0 0 
0 0 0 0 0 0 0 0 0 
0 0 0 0 0 0 0 0 0 
0 0 0 0 0 0 0 0 0 
0 0 0 0 0 0 0 0 0 
0 0 0 0 0 0 0 0 0 
0 0 0 0 0 0 0 0 0 
0 0 0 0 0 0 0 0 0 
0 0 0 0 0 0 0 0 0 
0 0 0 0 0 0 0 0 0 
0 0 0 0 0 0 0 0 0 
0 0 0 0 0 0 0 0 0 
0 0 0 0 0 0 0 0 0 
0 0 0 0 0 0 0 0 0 
0 0 0 0 0 0 0 0 0 
0 0 0 0 0 0 0 0 0 
0 0 0 0 0 0 0 0 0 
0 0 0 0 0 0 0 0 0 
0 0 0 0 0 0 0 0 0 
0 0 0 0 0 0 0 0 0 
0 0 0 0 0 0 0 0 0 
0 0 0 0 0 0 0 0 0 
0 0 0 0 0 0 0 0 0 
0 0 0 0 0 0 0 0 0 
0 0 0 0 0 0 0 0 0 
0 0 0 0 0 0 0 0 0 
0 0 0 0 0 0 0 0 0 
0 0 0 0 0 0 0 0 0 
0 0 0 0 0 0 0 0 0 
0 0 0 0 0 0 0 0 0 
0 0 0 0 0 0 0 0 0 
0 0 0 0 0 0 0 0 0 
0 0 0 0 0 0 0 0 0 
0 0 0 0 0 0 0 0 0 
0 0 0 0 0 0 0 0 0 
0 0 0 0 0 0 0 0 0 
0 0 0 0 0 0 0 0 0 
0 0 0 0 0 0 0 0 0 
0 0 0 0 0 0 0 0 0 
0 0 0 0 0 0 0 0 0 
0 0 0 0 0 0 0 0 0 
0 0 0 0 0 0 0 0 0 
0 0 0 0 0 0 0 0 0 
0 0 0 0 0 0 0 0 0 
0 0 0 0 0 0 0 0 0 
0 0 0 0 0 0 0 0 0 
0 0 0 0 0 0 0 0 0 
0 0 0 0 0 0 0 0 0 
0 0 0 0 0 0 0 0 0 
0 0 0 0 0 0 0 0 0 
0 0 0 0 0 0 0 0 0 
0 0 0 0 0 0 0 0 0 
0 0 0 0 0 0 0 0 0 
0 0 0 0 0 0 0 0 0 
0 0 0 0 0 0 0 0 0 
0 0 0 0 0 0 0 0 0 
0 0 0 0 0 0 0 0 0 
0 0 0 0 0 0 0 0 0 
0 0 0 0 0 0 0 0 0 
0 0 0 0 0 0 0 0 0 
0 0 0 0 0 0 0 0 0 
0 0 0 0 0 0 0 0 0 
0 0 0 0 0 0 0 0 0 
0 0 0 0 0 0 0 0 0 
0 0 0 0 0 0 0 0 0 
0 0 0 0 0 0 0 0 0 
0 0 0 0 0 0 0 0 0 
0 0 0 0 0 0 0 0 0 
0 0 0 0 0 0 0 0 0 
0 0 0 0 0 0 0 0 0 
0 0 0 0 0 0 0 0 0 
0 0 0 0 0 0 0 0 0 
0 0 0 0 0 0 0 0 0 
0 0 0 0 0 0 0 0 0 
0 0 0 0 0 0 0 0 0 
0 0 0 0 0 0 0 0 0 
0 0 0 0 0 0 0 0 0 
0 0 0 0 0 0 0 0 0 
0 0 0 0 0 0 0 0 0 
0 0 0 0 0 0 0 0 0 
0 0 0 0 0 0 0 0 0 
0 0 0 0 0 0 0 0 0 
0 0 0 0 0 0 0 0 0 
0 0 0 0 0 0 0 0 0 
0 0 0 0 0 0 0 0 0 
0 0 0 0 0 0 0 0 0 
0 0 0 0 0 0 0 0 0 
0 0 0 0 0 0 0 0 0 
0 0 0 0 0 0 0 0 0 
0 0 0 0 0 0 0 0 0 
0 0 0 0 0 0 0 0 0 
0 0 0 0 0 0 0 0 0 
0 0 0 0 0 0 0 0 0 
0 0 0 0 0 0 0 0 0 
0 0 0 0 0 0 0 0 0 
0 0 0 0 0 0 0 0 0 
0 0 0 0 0 0 0 0 0 
0 0 0 0 0 0 0 0 0 
0 0 0 0 0 0 0 0 0 
0 0 0 0 0 0 0 0 0 
0 0 0 0 0 0 0 0 0 
0 0 0 0 0 0 0 0 0 
0 0 0 0 0 0 0 0 0 
0 0 0 0 0 0 0 0 0 
0 0 0 0 0 0 0 0 0 
0 0 0 0 0 0 0 0 0 
0 0 0 0 0 0 0 0 0 
0 0 0 0 0 0 0 0 0 
0 0 0 0 0 0 0 0 0 
0 0 0 0 0 0 0 0 0 
0 0 0 0 0 0 0 0 0 
0 0 0 0 0 0 0 0 0 
0 0 0 0 0 0 0 0 0 
0 0 0 0 0 0 0 0 0 
0 0 0 0 0 0 0 0 0 
0 0 0 0 0 0 0 0 0 
0 0 0 0 0 0 0 0 0 
0 0 0 0 0 0 0 0 0 
0 0 0 0 0 0 0 0 0 
0 0 0 0 0 0 0 0 0 
0 0 0 0 0 0 0 0 0 
0 0 0 0 0 0 0 0 0 
0 0 0 0 0 0 0 0 0 
0 0 0 0 0 0 0 0 0 
0 0 0 0 0 0 0 0 0 
0 0 0 0 0 0 0 0 0 
0 0 0 0 0 0 0 0 0 
0 0 0 0 0 0 0 0 0 
0 0 0 0 0 0 0 0 0 
0 0 0 0 0 0 0 0 0 
0 0 0 0 0 0 0 0 0 
0 0 0 0 0 0 0 0 0 
0 0 0 0 0 0 0 0 0 
0 0 0 0 0 0 0 0 0 
0 0 0 0 0 0 0 0 0 
0 0 0 0 0 0 0 0 0 
0 0 0 0 0 0 0 0 0 
0 0 0 0 0 0 0 0 0 
0 0 0 0 0 0 0 0 0 
0 0 0 0 0 0 0 0 0 
0 0 0 0 0 0 0 0 0 
0 0 0 0 0 0 0 0 0 
0 0 0 0 0 0 0 0 0 
0 0 0 0 0 0 0 0 0 
0 0 0 0 0 0 0 0 0 
0 0 0 0 0 0 0 0 0 
0 0 0 0 0 0 0 0 0 
0 0 0 0 0 0 0 0 0 
0 0 0 0 0 0 0 0 0 
0 0 0 0 0 0 0 0 0 
0 0 0 0 0 0 0 0 0 
0 0 0 0 0 0 0 0 0 
0 0 0 0 0 0 0 0 0 
0 0 0 0 0 0 0 0 0 
0 0 0 0 0 0 0 0 0 
0 0 0 0 0 0 0 0 0 
0 0 0 0 0 0 0 0 0 
0 0 0 0 0 0 0 0 0 
0 0 0 0 0 0 0 0 0 
0 0 0 0 0 0 0 0 0 
0 0 0 0 0 0 0 0 0 
0 0 0 0 0 0 0 0 0 
0 0 0 0 0 0 0 0 0 
0 0 0 0 0 0 0 0 0 
0 0 0 0 0 0 0 0 0 
0 0 0 0 0 0 0 0 0 
0 0 0 0 0 0 0 0 0 
0 0 0 0 0 0 0 0 0 
0 0 0 0 0 0 0 0 0 
0 0 0 0 0 0 0 0 0 
0 0 0 0 0 0 0 0 0 
0 0 0 0 0 0 0 0 0 
0 0 0 0 0 0 0 0 0 
0 0 0 0 0 0 0 0 0 
0 0 0 0 0 0 0 0 0 
0 0 0 0 0 0 0 0 0 
0 0 0 0 0 0 0 0 0 
0 0 0 0 0 0 0 0 0 
0 0 0 0 0 0 0 0 0 
0 0 0 0 0 0 0 0 0 
0 0 0 0 0 0 0 0 0 
0 0 0 0 0 0 0 0 0 
0 0 0 0 0 0 0 0 0 
0 0 0 0 0 0 0 0 0 
0 0 0 0 0 0 0 0 0 
0 0 0 0 0 0 0 0 0 
0 0 0 0 0 0 0 0 0 
0 0 0 0 0 0 0 0 0 
0 0 0 0 0 0 0 0 0 
0 0 0 0 0 0 0 0 0 
0 0 0 0 0 0 0 0 0 
0 0 0 0 0 0 0 0 0 
0 0 0 0 0 0 0 0 0 
0 0 0 0 0 0 0 0 0 
0 0 0 0 0 0 0 0 0 
0 0 0 0 0 0 0 0 0 
0 0 0 0 0 0 0 0 0 
0 0 0 0 0 0 0 0 0 
0 0 0 0 0 0 0 0 0 
0 0 0 0 0 0 0 0 0 
0 0 0 0 0 0 0 0 0 
0 0 0 0 0 0 0 0 0 
0 0 0 0 0 0 0 0 0 
0 0 0 0 0 0 0 0 0 
0 0 0 0 0 0 0 0 0 
0 0 0 0 0 0 0 0 0 
0 0 0 0 0 0 0 0 0 
0 0 0 0 0 0 0 0 0 
0 0 0 0 0 0 0 0 0 
0 0 0 0 0 0 0 0 0 
0 0 0 0 0 0 0 0 0 
0 0 0 0 0 0 0 0 0 
0 0 0 0 0 0 0 0 0 
0 0 0 0 0 0 0 0 0 
0 0 0 0 0 0 0 0 0 
0 0 0 0 0 0 0 0 0 
0 0 0 0 0 0 0 0 0 
0 0 0 0 0 0 0 0 0 
0 0 0 0 0 0 0 0 0 
0 0 0 0 0 0 0 0 0 
0 0 0 0 0 0 0 0 0 
0 0 0 0 0 0 0 0 0 
0 0 0 0 0 0 0 0 0 
0 0 0 0 0 0 0 0 0 
0 0 0 0 0 0 0 0 0 
0 0 0 0 0 0 0 0 0 
0 0 0 0 0 0 0 0 0 
0 0 0 0 0 0 0 0 0 
0 0 0 0 0 0 0 0 0 
0 0 0 0 0 0 0 0 0 
0 0 0 0 0 0 0 0 0 
0 0 0 0 0 0 0 0 0 
0 0 0 0 0 0 0 0 0 
0 0 0 0 0 0 0 0 0 
0 0 0 0 0 0 0 0 0 
0 0 0 0 0 0 0 0 0 
0 0 0 0 0 0 0 0 0 
0 0 0 0 0 0 0 0 0 
0 0 0 0 0 0 0 0 0 
0 0 0 0 0 0 0 0 0 
0 0 0 0 0 0 0 0 0 
0 0 0 0 0 0 0 0 0 
0 0 0 0 0 0 0 0 0 
0 0 0 0 0 0 0 0 0 
0 0 0 0 0 0 0 0 0 
0 0 0 0 0 0 0 0 0 
0 0 0 0 0 0 0 0 0 
0 0 0 0 0 0 0 0 0 
0 0 0 0 0 0 0 0 0 
0 0 0 0 0 0 0 0 0 
0 0 0 0 0 0 0 0 0 
0 0 0 0 0 0 0 0 0 
0 0 0 0 0 0 0 0 0 
0 0 0 0 0 0 0 0 0 
0 0 0 0 0 0 0 0 0 
0 0 0 0 0 0 0 0 0 
0 0 0 0 0 0 0 0 0 
0 0 0 0 0 0 0 0 0 
0 0 0 0 0 0 0 0 0 
0 0 0 0 0 0 0 0 0 
0 0 0 0 0 0 0 0 0 
0 0 0 0 0 0 0 0 0 
0 0 0 0 0 0 0 0 0 
0 0 0 0 0 0 0 0 0 
0 0 0 0 0 0 0 0 0 
0 0 0 0 0 0 0 0 0 
0 0 0 0 0 0 0 0 0 
0 0 0 0 0 0 0 0 0 
0 0 0 0 0 0 0 0 0 
0 0 0 0 0 0 0 0 0 
0 0 0 0 0 0 0 0 0 
0 0 0 0 0 0 0 0 0 
0 0 0 0 0 0 0 0 0 
0 0 0 0 0 0 0 0 0 
0 0 0 0 0 0 0 0 0 
0 0 0 0 0 0 0 0 0 
0 0 0 0 0 0 0 0 0 
0 0 0 0 0 0 0 0 0 
0 0 0 0 0 0 0 0 0 
0 0 0 0 0 0 0 0 0 
0 0 0 0 0 0 0 0 0 
0 0 0 0 0 0 0 0 0 
0 0 0 0 0 0 0 0 0 
0 0 0 0 0 0 0 0 0 
0 0 0 0 0 0 0 0 0 
0 0 0 0 0 0 0 0 0 
0 0 0 0 0 0 0 0 0 
0 0 0 0 0 0 0 0 0 
0 0 0 0 0 0 0 0 0 
0 0 0 0 0 0 0 0 0 
0 0 0 0 0 0 0 0 0 
0 0 0 0 0 0 0 0 0 
0 0 0 0 0 0 0 0 0 
0 0 0 0 0 0 0 0 0 
0 0 0 0 0 0 0 0 0 
0 0 0 0 0 0 0 0 0 
0 0 0 0 0 0 0 0 0 
0 0 0 0 0 0 0 0 0 
0 0 0 0 0 0 0 0 0 
0 0 0 0 0 0 0 0 0 
0 0 0 0 0 0 0 0 0 
0 0 0 0 0 0 0 0 0 
0 0 0 0 0 0 0 0 0 
0 0 0 0 0 0 0 0 0 
0 0 0 0 0 0 0 0 0 
0 0 0 0 0 0 0 0 0 
0 0 0 0 0 0 0 0 0 
0 0 0 0 0 0 0 0 0 
0 0 0 0 0 0 0 0 0 
0 0 0 0 0 0 0 0 0 
0 0 0 0 0 0 0 0 0 
0 0 0 0 0 0 0 0 0 
0 0 0 0 0 0 0 0 0 
0 0 0 0 0 0 0 0 0 
0 0 0 0 0 0 0 0 0 
0 0 0 0 0 0 0 0 0 
0 0 0 0 0 0 0 0 0 
0 0 0 0 0 0 0 0 0 
0 0 0 0 0 0 0 0 0 
0 0 0 0 0 0 0 0 0 
0 0 0 0 0 0 0 0 0 
0 0 0 0 0 0 0 0 0 
0 0 0 0 0 0 0 0 0 
0 0 0 0 0 0 0 0 0 
0 0 0 0 0 0 0 0 0 
0 0 0 0 0 0 0 0 0 
0 0 0 0 0 0 0 0 0 
0 0 0 0 0 0 0 0 0 
0 0 0 0 0 0 0 0 0 
0 0 0 0 0 0 0 0 0 
0 0 0 0 0 0 0 0 0 
0 0 0 0 0 0 0 0 0 
0 0 0 0 0 0 0 0 0 
0 0 0 0 0 0 0 0 0 
0 0 0 0 0 0 0 0 0 
0 0 0 0 0 0 0 0 0 
0 0 0 0 0 0 0 0 0 
0 0 0 0 0 0 0 0 0 
0 0 0 0 0 0 0 0 0 
0 0 0 0 0 0 0 0 0 
0 0 0 0 0 0 0 0 0 
0 0 0 0 0 0 0 0 0 
0 0 0 0 0 0 0 0 0 
0 0 0 0 0 0 0 0 0 
0 0 0 0 0 0 0 0 0 
0 0 0 0 0 0 0 0 0 
0 0 0 0 0 0 0 0 0 
0 0 0 0 0 0 0 0 0 
0 0 0 0 0 0 0 0 0 
0 0 0 0 0 0 0 0 0 
0 0 0 0 0 0 0 0 0 
0 0 0 0 0 0 0 0 0 
0 0 0 0 0 0 0 0 0 
0 0 0 0 0 0 0 0 0 
0 0 0 0 0 0 0 0 0 
0 0 0 0 0 0 0 0 0 
0 0 0 0 0 0 0 0 0 
0 0 0 0 0 0 0 0 0 
0 0 0 0 0 0 0 0 0 
0 0 0 0 0 0 0 0 0 
0 0 0 0 0 0 0 0 0 
0 0 0 0 0 0 0 0 0 
0 0 0 0 0 0 0 0 0 
0 0 0 0 0 0 0 0 0 
0 0 0 0 0 0 0 0 0 
0 0 0 0 0 0 0 0 0 
0 0 0 0 0 0 0 0 0 
0 0 0 0 0 0 0 0 0 
0 0 0 0 0 0 0 0 0 
0 0 0 0 0 0 0 0 0 
0 0 0 0 0 0 0 0 0 
0 0 0 0 0 0 0 0 0 
0 0 0 0 0 0 0 0 0 
0 0 0 0 0 0 0 0 0 
0 0 0 0 0 0 0 0 0 
0 0 0 0 0 0 0 0 0 
0 0 0 0 0 0 0 0 0 
0 0 0 0 0 0 0 0 0 
0 0 0 0 0 0 0 0 0 
0 0 0 0 0 0 0 0 0 
0 0 0 0 0 0 0 0 0 
0 0 0 0 0 0 0 0 0 
0 0 0 0 0 0 0 0 0 
0 0 0 0 0 0 0 0 0 
0 0 0 0 0 0 0 0 0 
0 0 0 0 0 0 0 0 0 
0 0 0 0 0 0 0 0 0 
0 0 0 0 0 0 0 0 0 
0 0 0 0 0 0 0 0 0 
0 0 0 0 0 0 0 0 0 
0 0 0 0 0 0 0 0 0 
0 0 0 0 0 0 0 0 0 
0 0 0 0 0 0 0 0 0 
0 0 0 0 0 0 0 0 0 
0 0 0 0 0 0 0 0 0 
0 0 0 0 0 0 0 0 0 
0 0 0 0 0 0 0 0 0 
0 0 0 0 0 0 0 0 0 
0 0 0 0 0 0 0 0 0 
0 0 0 0 0 0 0 0 0 
0 0 0 0 0 0 0 0 0 
0 0 0 0 0 0 0 0 0 
0 0 0 0 0 0 0 0 0 
0 0 0 0 0 0 0 0 0 
0 0 0 0 0 0 0 0 0 
0 0 0 0 0 0 0 0 0 
0 0 0 0 0 0 0 0 0 
0 0 0 0 0 0 0 0 0 
0 0 0 0 0 0 0 0 0 
0 0 0 0 0 0 0 0 0 
0 0 0 0 0 0 0 0 0 
0 0 0 0 0 0 0 0 0 
0 0 0 0 0 0 0 0 0 
0 0 0 0 0 0 0 0 0 
0 0 0 0 0 0 0 0 0 
0 0 0 0 0 0 0 0 0 
0 0 0 0 0 0 0 0 0 
0 0 0 0 0 0 0 0 0 
0 0 0 0 0 0 0 0 0 
0 0 0 0 0 0 0 0 0 
0 0 0 0 0 0 0 0 0 
0 0 0 0 0 0 0 0 0 
0 0 0 0 0 0 0 0 0 
0 0 0 0 0 0 0 0 0 
0 0 0 0 0 0 0 0 0 
0 0 0 0 0 0 0 0 0 
0 0 0 0 0 0 0 0 0 
0 0 0 0 0 0 0 0 0 
0 0 0 0 0 0 0 0 0 
0 0 0 0 0 0 0 0 0 
0 0 0 0 0 0 0 0 0 
0 0 0 0 0 0 0 0 0 
0 0 0 0 0 0 0 0 0 
0 0 0 0 0 0 0 0 0 
0 0 0 0 0 0 0 0 0 
0 0 0 0 0 0 0 0 0 
0 0 0 0 0 0 0 0 0 
0 0 0 0 0 0 0 0 0 
0 0 0 0 0 0 0 0 0 
0 0 0 0 0 0 0 0 0 
0 0 0 0 0 0 0 0 0 
0 0 0 0 0 0 0 0 0 
0 0 0 0 0 0 0 0 0 
0 0 0 0 0 0 0 0 0 
0 0 0 0 0 0 0 0 0 
0 0 0 0 0 0 0 0 0 
0 0 0 0 0 0 0 0 0 
0 0 0 0 0 0 0 0 0 
0 0 0 0 0 0 0 0 0 
0 0 0 0 0 0 0 0 0 
0 0 0 0 0 0 0 0 0 
0 0 0 0 0 0 0 0 0 
0 0 0 0 0 0 0 0 0 
0 0 0 0 0 0 0 0 0 
0 0 0 0 0 0 0 0 0 
0 0 0 0 0 0 0 0 0 
0 0 0 0 0 0 0 0 0 
0 0 0 0 0 0 0 0 0 
0 0 0 0 0 0 0 0 0 
0 0 0 0 0 0 0 0 0 
0 0 0 0 0 0 0 0 0 
0 0 0 0 0 0 0 0 0 
0 0 0 0 0 0 0 0 0 
0 0 0 0 0 0 0 0 0 
0 0 0 0 0 0 0 0 0 
0 0 0 0 0 0 0 0 0 
0 0 0 0 0 0 0 0 0 
0 0 0 0 0 0 0 0 0 
0 0 0 0 0 0 0 0 0 
0 0 0 0 0 0 0 0 0 
0 0 0 0 0 0 0 0 0 
0 0 0 0 0 0 0 0 0 
0 0 0 0 0 0 0 0 0 
0 0 0 0 0 0 0 0 0 
0 0 0 0 0 0 0 0 0 
0 0 0 0 0 0 0 0 0 
0 0 0 0 0 0 0 0 0 
0 0 0 0 0 0 0 0 0 
0 0 0 0 0 0 0 0 0 
0 0 0 0 0 0 0 0 0 
0 0 0 0 0 0 0 0 0 
0 0 0 0 0 0 0 0 0 
0 0 0 0 0 0 0 0 0 
0 0 0 0 0 0 0 0 0 
0 0 0 0 0 0 0 0 0 
0 0 0 0 0 0 0 0 0 
0 0 0 0 0 0 0 0 0 
0 0 0 0 0 0 0 0 0 
0 0 0 0 0 0 0 0 0 
0 0 0 0 0 0 0 0 0 
0 0 0 0 0 0 0 0 0 
0 0 0 0 0 0 0 0 0 
0 0 0 0 0 0 0 0 0 
0 0 0 0 0 0 0 0 0 
0 0 0 0 0 0 0 0 0 
0 0 0 0 0 0 0 0 0 
0 0 0 0 0 0 0 0 0 
0 0 0 0 0 0 0 0 0 
0 0 0 0 0 0 0 0 0 
0 0 0 0 0 0 0 0 0 
0 0 0 0 0 0 0 0 0 
0 0 0 0 0 0 0 0 0 
0 0 0 0 0 0 0 0 0 
0 0 0 0 0 0 0 0 0 
0 0 0 0 0 0 0 0 0 
0 0 0 0 0 0 0 0 0 
0 0 0 0 0 0 0 0 0 
0 0 0 0 0 0 0 0 0 
0 0 0 0 0 0 0 0 0 
0 0 0 0 0 0 0 0 0 
0 0 0 0 0 0 0 0 0 
0 0 0 0 0 0 0 0 0 
0 0 0 0 0 0 0 0 0 
0 0 0 0 0 0 0 0 0 
0 0 0 0 0 0 0 0 0 
0 0 0 0 0 0 0 0 0 
0 0 0 0 0 0 0 0 0 
0 0 0 0 0 0 0 0 0 
0 0 0 0 0 0 0 0 0 
0 0 0 0 0 0 0 0 0 
0 0 0 0 0 0 0 0 0 
0 0 0 0 0 0 0 0 0 
0 0 0 0 0 0 0 0 0 
0 0 0 0 0 0 0 0 0 
0 0 0 0 0 0 0 0 0 
0 0 0 0 0 0 0 0 0 
0 0 0 0 0 0 0 0 0 
0 0 0 0 0 0 0 0 0 
0 0 0 0 0 0 0 0 0 
0 0 0 0 0 0 0 0 0 
0 0 0 0 0 0 0 0 0 
0 0 0 0 0 0 0 0 0 
0 0 0 0 0 0 0 0 0 
0 0 0 0 0 0 0 0 0 
0 0 0 0 0 0 0 0 0 
0 0 0 0 0 0 0 0 0 
0 0 0 0 0 0 0 0 0 
0 0 0 0 0 0 0 0 0 
0 0 0 0 0 0 0 0 0 
0 0 0 0 0 0 0 0 0 
0 0 0 0 0 0 0 0 0 
0 0 0 0 0 0 0 0 0 
0 0 0 0 0 0 0 0 0 
0 0 0 0 0 0 0 0 0 
0 0 0 0 0 0 0 0 0 
0 0 0 0 0 0 0 0 0 
0 0 0 0 0 0 0 0 0 
0 0 0 0 0 0 0 0 0 
0 0 0 0 0 0 0 0 0 
0 0 0 0 0 0 0 0 0 
0 0 0 0 0 0 0 0 0 
0 0 0 0 0 0 0 0 0 
0 0 0 0 0 0 0 0 0 
0 0 0 0 0 0 0 0 0 
0 0 0 0 0 0 0 0 0 
0 0 0 0 0 0 0 0 0 
0 0 0 0 0 0 0 0 0 
0 0 0 0 0 0 0 0 0 
0 0 0 0 0 0 0 0 0 
0 0 0 0 0 0 0 0 0 
0 0 0 0 0 0 0 0 0 
0 0 0 0 0 0 0 0 0 
0 0 0 0 0 0 0 0 0 
0 0 0 0 0 0 0 0 0 
0 0 0 0 0 0 0 0 0 
0 0 0 0 0 0 0 0 0 
0 0 0 0 0 0 0 0 0 
0 0 0 0 0 0 0 0 0 
0 0 0 0 0 0 0 0 0 
0 0 0 0 0 0 0 0 0 
0 0 0 0 0 0 0 0 0 
0 0 0 0 0 0 0 0 0 
0 0 0 0 0 0 0 0 0 
0 0 0 0 0 0 0 0 0 
0 0 0 0 0 0 0 0 0 
0 0 0 0 0 0 0 0 0 
0 0 0 0 0 0 0 0 0 
0 0 0 0 0 0 0 0 0 
0 0 0 0 0 0 0 0 0 
0 0 0 0 0 0 0 0 0 
0 0 0 0 0 0 0 0 0 
0 0 0 0 0 0 0 0 0 
0 0 0 0 0 0 0 0 0 
0 0 0 0 0 0 0 0 0 
0 0 0 0 0 0 0 0 0 
0 0 0 0 0 0 0 0 0 
0 0 0 0 0 0 0 0 0 
0 0 0 0 0 0 0 0 0 
0 0 0 0 0 0 0 0 0 
0 0 0 0 0 0 0 0 0 
0 0 0 0 0 0 0 0 0 
0 0 0 0 0 0 0 0 0 
0 0 0 0 0 0 0 0 0 
0 0 0 0 0 0 0 0 0 
0 0 0 0 0 0 0 0 0 
0 0 0 0 0 0 0 0 0 
0 0 0 0 0 0 0 0 0 
0 0 0 0 0 0 0 0 0 
0 0 0 0 0 0 0 0 0 
0 0 0 0 0 0 0 0 0 
0 0 0 0 0 0 0 0 0 
0 0 0 0 0 0 0 0 0 
0 0 0 0 0 0 0 0 0 
0 0 0 0 0 0 0 0 0 
0 0 0 0 0 0 0 0 0 
0 0 0 0 0 0 0 0 0 
0 0 0 0 0 0 0 0 0 
0 0 0 0 0 0 0 0 0 
0 0 0 0 0 0 0 0 0 
0 0 0 0 0 0 0 0 0 
0 0 0 0 0 0 0 0 0 
0 0 0 0 0 0 0 0 0 
0 0 0 0 0 0 0 0 0 
0 0 0 0 0 0 0 0 0 
0 0 0 0 0 0 0 0 0 
0 0 0 0 0 0 0 0 0 
0 0 0 0 0 0 0 0 0 
0 0 0 0 0 0 0 0 0 
0 0 0 0 0 0 0 0 0 
0 0 0 0 0 0 0 0 0 
0 0 0 0 0 0 0 0 0 
0 0 0 0 0 0 0 0 0 
0 0 0 0 0 0 0 0 0 
0 0 0 0 0 0 0 0 0 
0 0 0 0 0 0 0 0 0 
0 0 0 0 0 0 0 0 0 
0 0 0 0 0 0 0 0 0 
0 0 0 0 0 0 0 0 0 
0 0 0 0 0 0 0 0 0 
0 0 0 0 0 0 0 0 0 
0 0 0 0 0 0 0 0 0 
0 0 0 0 0 0 0 0 0 
0 0 0 0 0 0 0 0 0 
0 0 0 0 0 0 0 0 0 
0 0 0 0 0 0 0 0 0 
0 0 0 0 0 0 0 0 0 
0 0 0 0 0 0 0 0 0 
0 0 0 0 0 0 0 0 0 
0 0 0 0 0 0 0 0 0 
0 0 0 0 0 0 0 0 0 
0 0 0 0 0 0 0 0 0 
0 0 0 0 0 0 0 0 0 
0 0 0 0 0 0 0 0 0 
0 0 0 0 0 0 0 0 0 
0 0 0 0 0 0 0 0 0 
0 0 0 0 0 0 0 0 0 
0 0 0 0 0 0 0 0 0 
0 0 0 0 0 0 0 0 0 
0 0 0 0 0 0 0 0 0 
0 0 0 0 0 0 0 0 0 
0 0 0 0 0 0 0 0 0 
0 0 0 0 0 0 0 0 0 
0 0 0 0 0 0 0 0 0 
0 0 0 0 0 0 0 0 0 
0 0 0 0 0 0 0 0 0 
0 0 0 0 0 0 0 0 0 
0 0 0 0 0 0 0 0 0 
0 0 0 0 0 0 0 0 0 
0 0 0 0 0 0 0 0 0 
0 0 0 0 0 0 0 0 0 
0 0 0 0 0 0 0 0 0 
0 0 0 0 0 0 0 0 0 
0 0 0 0 0 0 0 0 0 
0 0 0 0 0 0 0 0 0 
0 0 0 0 0 0 0 0 0 
0 0 0 0 0 0 0 0 0 
0 0 0 0 0 0 0 0 0 
0 0 0 0 0 0 0 0 0 
0 0 0 0 0 0 0 0 0 
0 0 0 0 0 0 0 0 0 
0 0 0 0 0 0 0 0 0 
0 0 0 0 0 0 0 0 0 
0 0 0 0 0 0 0 0 0 
0 0 0 0 0 0 0 0 0 
0 0 0 0 0 0 0 0 0 
0 0 0 0 0 0 0 0 0 
0 0 0 0 0 0 0 0 0 
0 0 0 0 0 0 0 0 0 
0 0 0 0 0 0 0 0 0 
0 0 0 0 0 0 0 0 0 
0 0 0 0 0 0 0 0 0 
0 0 0 0 0 0 0 0 0 
0 0 0 0 0 0 0 0 0 
0 0 0 0 0 0 0 0 0 
0 0 0 0 0 0 0 0 0 
0 0 0 0 0 0 0 0 0 
0 0 0 0 0 0 0 0 0 
0 0 0 0 0 0 0 0 0 
0 0 0 0 0 0 0 0 0 
0 0 0 0 0 0 0 0 0 
0 0 0 0 0 0 0 0 0 
0 0 0 0 0 0 0 0 0 
0 0 0 0 0 0 0 0 0 
0 0 0 0 0 0 0 0 0 
0 0 0 0 0 0 0 0 0 
0 0 0 0 0 0 0 0 0 
0 0 0 0 0 0 0 0 0 
0 0 0 0 0 0 0 0 0 
0 0 0 0 0 0 0 0 0 
0 0 0 0 0 0 0 0 0 
0 0 0 0 0 0 0 0 0 
0 0 0 0 0 0 0 0 0 
0 0 0 0 0 0 0 0 0 
0 0 0 0 0 0 0 0 0 
0 0 0 0 0 0 0 0 0 
0 0 0 0 0 0 0 0 0 
0 0 0 0 0 0 0 0 0 
0 0 0 0 0 0 0 0 0 
0 0 0 0 0 0 0 0 0 
0 0 0 0 0 0 0 0 0 
0 0 0 0 0 0 0 0 0 
0 0 0 0 0 0 0 0 0 
0 0 0 0 0 0 0 0 0 
0 0 0 0 0 0 0 0 0 
0 0 0 0 0 0 0 0 0 
0 0 0 0 0 0 0 0 0 
0 0 0 0 0 0 0 0 0 
0 0 0 0 0 0 0 0 0 
0 0 0 0 0 0 0 0 0 
0 0 0 0 0 0 0 0 0 
0 0 0 0 0 0 0 0 0 
0 0 0 0 0 0 0 0 0 
0 0 0 0 0 0 0 0 0 
0 0 0 0 0 0 0 0 0 
0 0 0 0 0 0 0 0 0 
0 0 0 0 0 0 0 0 0 
0 0 0 0 0 0 0 0 0 
0 0 0 0 0 0 0 0 0 
0 0 0 0 0 0 0 0 0 
0 0 0 0 0 0 0 0 0 
0 0 0 0 0 0 0 0 0 
0 0 0 0 0 0 0 0 0 
0 0 0 0 0 0 0 0 0 
0 0 0 0 0 0 0 0 0 
0 0 0 0 0 0 0 0 0 
0 0 0 0 0 0 0 0 0 
0 0 0 0 0 0 0 0 0 
0 0 0 0 0 0 0 0 0 
0 0 0 0 0 0 0 0 0 
0 0 0 0 0 0 0 0 0 
0 0 0 0 0 0 0 0 0 
0 0 0 0 0 0 0 
Velocity 3 7351 double
0 0 0 0 0 0 0 0 0 
0 0 0 0 0 0 0 0 0 
0 0 0 0 0 0 0 0 0 
0 0 0 0 0 0 0 0 0 
0 0 0 0 0 0 0 0 0 
0 0 0 0 0 0 0 0 0 
0 0 0 0 0 0 0 0 0 
0 0 0 0 0 0 0 0 0 
0 0 0 0 0 0 0 0 0 
0 0 0 0 0 0 0 0 0 
0 0 0 0 0 0 0 0 0 
0 0 0 0 0 0 0 0 0 
0 0 0 0 0 0 0 0 0 
0 0 0 0 0 0 0 0 0 
0 0 0 0 0 0 0 0 0 
0 0 0 0 0 0 0 0 0 
0 0 0 0 0 0 0 0 0 
0 0 0 0 0 0 0 0 0 
0 0 0 0 0 0 0 0 0 
0 0 0 0 0 0 0 0 0 
0 0 0 0 0 0 0 0 0 
0 0 0 0 0 0 0 0 0 
0 0 0 0 0 0 0 0 0 
0 0 0 0 0 0 0 0 0 
0 0 0 0 0 0 0 0 0 
0 0 0 0 0 0 0 0 0 
0 0 0 0 0 0 0 0 0 
0 0 0 0 0 0 0 0 0 
0 0 0 0 0 0 0 0 0 
0 0 0 0 0 0 0 0 0 
0 0 0 0 0 0 0 0 0 
0 0 0 0 0 0 0 0 0 
0 0 0 0 0 0 0 0 0 
0 0 0 0 0 0 0 0 0 
0 0 0 0 0 0 0 0 0 
0 0 0 0 0 0 0 0 0 
0 0 0 0 0 0 0 0 0 
0 0 0 0 0 0 0 0 0 
0 0 0 0 0 0 0 0 0 
0 0 0 0 0 0 0 0 0 
0 0 0 0 0 0 0 0 0 
0 0 0 0 0 0 0 0 0 
0 0 0 0 0 0 0 0 0 
0 0 0 0 0 0 0 0 0 
0 0 0 0 0 0 0 0 0 
0 0 0 0 0 0 0 0 0 
0 0 0 0 0 0 0 0 0 
0 0 0 0 0 0 0 0 0 
0 0 0 0 0 0 0 0 0 
0 0 0 0 0 0 0 0 0 
0 0 0 0 0 0 0 0 0 
0 0 0 0 0 0 0 0 0 
0 0 0 0 0 0 0 0 0 
0 0 0 0 0 0 0 0 0 
0 0 0 0 0 0 0 0 0 
0 0 0 0 0 0 0 0 0 
0 0 0 0 0 0 0 0 0 
0 0 0 0 0 0 0 0 0 
0 0 0 0 0 0 0 0 0 
0 0 0 0 0 0 0 0 0 
0 0 0 0 0 0 0 0 0 
0 0 0 0 0 0 0 0 0 
0 0 0 0 0 0 0 0 0 
0 0 0 0 0 0 0 0 0 
0 0 0 0 0 0 0 0 0 
0 0 0 0 0 0 0 0 0 
0 0 0 0 0 0 0 0 0 
0 0 0 0 0 0 0 0 0 
0 0 0 0 0 0 0 0 0 
0 0 0 0 0 0 0 0 0 
0 0 0 0 0 0 0 0 0 
0 0 0 0 0 0 0 0 0 
0 0 0 0 0 0 0 0 0 
0 0 0 0 0 0 0 0 0 
0 0 0 0 0 0 0 0 0 
0 0 0 0 0 0 0 0 0 
0 0 0 0 0 0 0 0 0 
0 0 0 0 0 0 0 0 0 
0 0 0 0 0 0 0 0 0 
0 0 0 0 0 0 0 0 0 
0 0 0 0 0 0 0 0 0 
0 0 0 0 0 0 0 0 0 
0 0 0 0 0 0 0 0 0 
0 0 0 0 0 0 0 0 0 
0 0 0 0 0 0 0 0 0 
0 0 0 0 0 0 0 0 0 
0 0 0 0 0 0 0 0 0 
0 0 0 0 0 0 0 0 0 
0 0 0 0 0 0 0 0 0 
0 0 0 0 0 0 0 0 0 
0 0 0 0 0 0 0 0 0 
0 0 0 0 0 0 0 0 0 
0 0 0 0 0 0 0 0 0 
0 0 0 0 0 0 0 0 0 
0 0 0 0 0 0 0 0 0 
0 0 0 0 0 0 0 0 0 
0 0 0 0 0 0 0 0 0 
0 0 0 0 0 0 0 0 0 
0 0 0 0 0 0 0 0 0 
0 0 0 0 0 0 0 0 0 
0 0 0 0 0 0 0 0 0 
0 0 0 0 0 0 0 0 0 
0 0 0 0 0 0 0 0 0 
0 0 0 0 0 0 0 0 0 
0 0 0 0 0 0 0 0 0 
0 0 0 0 0 0 0 0 0 
0 0 0 0 0 0 0 0 0 
0 0 0 0 0 0 0 0 0 
0 0 0 0 0 0 0 0 0 
0 0 0 0 0 0 0 0 0 
0 0 0 0 0 0 0 0 0 
0 0 0 0 0 0 0 0 0 
0 0 0 0 0 0 0 0 0 
0 0 0 0 0 0 0 0 0 
0 0 0 0 0 0 0 0 0 
0 0 0 0 0 0 0 0 0 
0 0 0 0 0 0 0 0 0 
0 0 0 0 0 0 0 0 0 
0 0 0 0 0 0 0 0 0 
0 0 0 0 0 0 0 0 0 
0 0 0 0 0 0 0 0 0 
0 0 0 0 0 0 0 0 0 
0 0 0 0 0 0 0 0 0 
0 0 0 0 0 0 0 0 0 
0 0 0 0 0 0 0 0 0 
0 0 0 0 0 0 0 0 0 
0 0 0 0 0 0 0 0 0 
0 0 0 0 0 0 0 0 0 
0 0 0 0 0 0 0 0 0 
0 0 0 0 0 0 0 0 0 
0 0 0 0 0 0 0 0 0 
0 0 0 0 0 0 0 0 0 
0 0 0 0 0 0 0 0 0 
0 0 0 0 0 0 0 0 0 
0 0 0 0 0 0 0 0 0 
0 0 0 0 0 0 0 0 0 
0 0 0 0 0 0 0 0 0 
0 0 0 0 0 0 0 0 0 
0 0 0 0 0 0 0 0 0 
0 0 0 0 0 0 0 0 0 
0 0 0 0 0 0 0 0 0 
0 0 0 0 0 0 0 0 0 
0 0 0 0 0 0 0 0 0 
0 0 0 0 0 0 0 0 0 
0 0 0 0 0 0 0 0 0 
0 0 0 0 0 0 0 0 0 
0 0 0 0 0 0 0 0 0 
0 0 0 0 0 0 0 0 0 
0 0 0 0 0 0 0 0 0 
0 0 0 0 0 0 0 0 0 
0 0 0 0 0 0 0 0 0 
0 0 0 0 0 0 0 0 0 
0 0 0 0 0 0 0 0 0 
0 0 0 0 0 0 0 0 0 
0 0 0 0 0 0 0 0 0 
0 0 0 0 0 0 0 0 0 
0 0 0 0 0 0 0 0 0 
0 0 0 0 0 0 0 0 0 
0 0 0 0 0 0 0 0 0 
0 0 0 0 0 0 0 0 0 
0 0 0 0 0 0 0 0 0 
0 0 0 0 0 0 0 0 0 
0 0 0 0 0 0 0 0 0 
0 0 0 0 0 0 0 0 0 
0 0 0 0 0 0 0 0 0 
0 0 0 0 0 0 0 0 0 
0 0 0 0 0 0 0 0 0 
0 0 0 0 0 0 0 0 0 
0 0 0 0 0 0 0 0 0 
0 0 0 0 0 0 0 0 0 
0 0 0 0 0 0 0 0 0 
0 0 0 0 0 0 0 0 0 
0 0 0 0 0 0 0 0 0 
0 0 0 0 0 0 0 0 0 
0 0 0 0 0 0 0 0 0 
0 0 0 0 0 0 0 0 0 
0 0 0 0 0 0 0 0 0 
0 0 0 0 0 0 0 0 0 
0 0 0 0 0 0 0 0 0 
0 0 0 0 0 0 0 0 0 
0 0 0 0 0 0 0 0 0 
0 0 0 0 0 0 0 0 0 
0 0 0 0 0 0 0 0 0 
0 0 0 0 0 0 0 0 0 
0 0 0 0 0 0 0 0 0 
0 0 0 0 0 0 0 0 0 
0 0 0 0 0 0 0 0 0 
0 0 0 0 0 0 0 0 0 
0 0 0 0 0 0 0 0 0 
0 0 0 0 0 0 0 0 0 
0 0 0 0 0 0 0 0 0 
0 0 0 0 0 0 0 0 0 
0 0 0 0 0 0 0 0 0 
0 0 0 0 0 0 0 0 0 
0 0 0 0 0 0 0 0 0 
0 0 0 0 0 0 0 0 0 
0 0 0 0 0 0 0 0 0 
0 0 0 0 0 0 0 0 0 
0 0 0 0 0 0 0 0 0 
0 0 0 0 0 0 0 0 0 
0 0 0 0 0 0 0 0 0 
0 0 0 0 0 0 0 0 0 
0 0 0 0 0 0 0 0 0 
0 0 0 0 0 0 0 0 0 
0 0 0 0 0 0 0 0 0 
0 0 0 0 0 0 0 0 0 
0 0 0 0 0 0 0 0 0 
0 0 0 0 0 0 0 0 0 
0 0 0 0 0 0 0 0 0 
0 0 0 0 0 0 0 0 0 
0 0 0 0 0 0 0 0 0 
0 0 0 0 0 0 0 0 0 
0 0 0 0 0 0 0 0 0 
0 0 0 0 0 0 0 0 0 
0 0 0 0 0 0 0 0 0 
0 0 0 0 0 0 0 0 0 
0 0 0 0 0 0 0 0 0 
0 0 0 0 0 0 0 0 0 
0 0 0 0 0 0 0 0 0 
0 0 0 0 0 0 0 0 0 
0 0 0 0 0 0 0 0 0 
0 0 0 0 0 0 0 0 0 
0 0 0 0 0 0 0 0 0 
0 0 0 0 0 0 0 0 0 
0 0 0 0 0 0 0 0 0 
0 0 0 0 0 0 0 0 0 
0 0 0 0 0 0 0 0 0 
0 0 0 0 0 0 0 0 0 
0 0 0 0 0 0 0 0 0 
0 0 0 0 0 0 0 0 0 
0 0 0 0 0 0 0 0 0 
0 0 0 0 0 0 0 0 0 
0 0 0 0 0 0 0 0 0 
0 0 0 0 0 0 0 0 0 
0 0 0 0 0 0 0 0 0 
0 0 0 0 0 0 0 0 0 
0 0 0 0 0 0 0 0 0 
0 0 0 0 0 0 0 0 0 
0 0 0 0 0 0 0 0 0 
0 0 0 0 0 0 0 0 0 
0 0 0 0 0 0 0 0 0 
0 0 0 0 0 0 0 0 0 
0 0 0 0 0 0 0 0 0 
0 0 0 0 0 0 0 0 0 
0 0 0 0 0 0 0 0 0 
0 0 0 0 0 0 0 0 0 
0 0 0 0 0 0 0 0 0 
0 0 0 0 0 0 0 0 0 
0 0 0 0 0 0 0 0 0 
0 0 0 0 0 0 0 0 0 
0 0 0 0 0 0 0 0 0 
0 0 0 0 0 0 0 0 0 
0 0 0 0 0 0 0 0 0 
0 0 0 0 0 0 0 0 0 
0 0 0 0 0 0 0 0 0 
0 0 0 0 0 0 0 0 0 
0 0 0 0 0 0 0 0 0 
0 0 0 0 0 0 0 0 0 
0 0 0 0 0 0 0 0 0 
0 0 0 0 0 0 0 0 0 
0 0 0 0 0 0 0 0 0 
0 0 0 0 0 0 0 0 0 
0 0 0 0 0 0 0 0 0 
0 0 0 0 0 0 0 0 0 
0 0 0 0 0 0 0 0 0 
0 0 0 0 0 0 0 0 0 
0 0 0 0 0 0 0 0 0 
0 0 0 0 0 0 0 0 0 
0 0 0 0 0 0 0 0 0 
0 0 0 0 0 0 0 0 0 
0 0 0 0 0 0 0 0 0 
0 0 0 0 0 0 0 0 0 
0 0 0 0 0 0 0 0 0 
0 0 0 0 0 0 0 0 0 
0 0 0 0 0 0 0 0 0 
0 0 0 0 0 0 0 0 0 
0 0 0 0 0 0 0 0 0 
0 0 0 0 0 0 0 0 0 
0 0 0 0 0 0 0 0 0 
0 0 0 0 0 0 0 0 0 
0 0 0 0 0 0 0 0 0 
0 0 0 0 0 0 0 0 0 
0 0 0 0 0 0 0 0 0 
0 0 0 0 0 0 0 0 0 
0 0 0 0 0 0 0 0 0 
0 0 0 0 0 0 0 0 0 
0 0 0 0 0 0 0 0 0 
0 0 0 0 0 0 0 0 0 
0 0 0 0 0 0 0 0 0 
0 0 0 0 0 0 0 0 0 
0 0 0 0 0 0 0 0 0 
0 0 0 0 0 0 0 0 0 
0 0 0 0 0 0 0 0 0 
0 0 0 0 0 0 0 0 0 
0 0 0 0 0 0 0 0 0 
0 0 0 0 0 0 0 0 0 
0 0 0 0 0 0 0 0 0 
0 0 0 0 0 0 0 0 0 
0 0 0 0 0 0 0 0 0 
0 0 0 0 0 0 0 0 0 
0 0 0 0 0 0 0 0 0 
0 0 0 0 0 0 0 0 0 
0 0 0 0 0 0 0 0 0 
0 0 0 0 0 0 0 0 0 
0 0 0 0 0 0 0 0 0 
0 0 0 0 0 0 0 0 0 
0 0 0 0 0 0 0 0 0 
0 0 0 0 0 0 0 0 0 
0 0 0 0 0 0 0 0 0 
0 0 0 0 0 0 0 0 0 
0 0 0 0 0 0 0 0 0 
0 0 0 0 0 0 0 0 0 
0 0 0 0 0 0 0 0 0 
0 0 0 0 0 0 0 0 0 
0 0 0 0 0 0 0 0 0 
0 0 0 0 0 0 0 0 0 
0 0 0 0 0 0 0 0 0 
0 0 0 0 0 0 0 0 0 
0 0 0 0 0 0 0 0 0 
0 0 0 0 0 0 0 0 0 
0 0 0 0 0 0 0 0 0 
0 0 0 0 0 0 0 0 0 
0 0 0 0 0 0 0 0 0 
0 0 0 0 0 0 0 0 0 
0 0 0 0 0 0 0 0 0 
0 0 0 0 0 0 0 0 0 
0 0 0 0 0 0 0 0 0 
0 0 0 0 0 0 0 0 0 
0 0 0 0 0 0 0 0 0 
0 0 0 0 0 0 0 0 0 
0 0 0 0 0 0 0 0 0 
0 0 0 0 0 0 0 0 0 
0 0 0 0 0 0 0 0 0 
0 0 0 0 0 0 0 0 0 
0 0 0 0 0 0 0 0 0 
0 0 0 0 0 0 0 0 0 
0 0 0 0 0 0 0 0 0 
0 0 0 0 0 0 0 0 0 
0 0 0 0 0 0 0 0 0 
0 0 0 0 0 0 0 0 0 
0 0 0 0 0 0 0 0 0 
0 0 0 0 0 0 0 0 0 
0 0 0 0 0 0 0 0 0 
0 0 0 0 0 0 0 0 0 
0 0 0 0 0 0 0 0 0 
0 0 0 0 0 0 0 0 0 
0 0 0 0 0 0 0 0 0 
0 0 0 0 0 0 0 0 0 
0 0 0 0 0 0 0 0 0 
0 0 0 0 0 0 0 0 0 
0 0 0 0 0 0 0 0 0 
0 0 0 0 0 0 0 0 0 
0 0 0 0 0 0 0 0 0 
0 0 0 0 0 0 0 0 0 
0 0 0 0 0 0 0 0 0 
0 0 0 0 0 0 0 0 0 
0 0 0 0 0 0 0 0 0 
0 0 0 0 0 0 0 0 0 
0 0 0 0 0 0 0 0 0 
0 0 0 0 0 0 0 0 0 
0 0 0 0 0 0 0 0 0 
0 0 0 0 0 0 0 0 0 
0 0 0 0 0 0 0 0 0 
0 0 0 0 0 0 0 0 0 
0 0 0 0 0 0 0 0 0 
0 0 0 0 0 0 0 0 0 
0 0 0 0 0 0 0 0 0 
0 0 0 0 0 0 0 0 0 
0 0 0 0 0 0 0 0 0 
0 0 0 0 0 0 0 0 0 
0 0 0 0 0 0 0 0 0 
0 0 0 0 0 0 0 0 0 
0 0 0 0 0 0 0 0 0 
0 0 0 0 0 0 0 0 0 
0 0 0 0 0 0 0 0 0 
0 0 0 0 0 0 0 0 0 
0 0 0 0 0 0 0 0 0 
0 0 0 0 0 0 0 0 0 
0 0 0 0 0 0 0 0 0 
0 0 0 0 0 0 0 0 0 
0 0 0 0 0 0 0 0 0 
0 0 0 0 0 0 0 0 0 
0 0 0 0 0 0 0 0 0 
0 0 0 0 0 0 0 0 0 
0 0 0 0 0 0 0 0 0 
0 0 0 0 0 0 0 0 0 
0 0 0 0 0 0 0 0 0 
0 0 0 0 0 0 0 0 0 
0 0 0 0 0 0 0 0 0 
0 0 0 0 0 0 0 0 0 
0 0 0 0 0 0 0 0 0 
0 0 0 0 0 0 0 0 0 
0 0 0 0 0 0 0 0 0 
0 0 0 0 0 0 0 0 0 
0 0 0 0 0 0 0 0 0 
0 0 0 0 0 0 0 0 0 
0 0 0 0 0 0 0 0 0 
0 0 0 0 0 0 0 0 0 
0 0 0 0 0 0 0 0 0 
0 0 0 0 0 0 0 0 0 
0 0 0 0 0 0 0 0 0 
0 0 0 0 0 0 0 0 0 
0 0 0 0 0 0 0 0 0 
0 0 0 0 0 0 0 0 0 
0 0 0 0 0 0 0 0 0 
0 0 0 0 0 0 0 0 0 
0 0 0 0 0 0 0 0 0 
0 0 0 0 0 0 0 0 0 
0 0 0 0 0 0 0 0 0 
0 0 0 0 0 0 0 0 0 
0 0 0 0 0 0 0 0 0 
0 0 0 0 0 0 0 0 0 
0 0 0 0 0 0 0 0 0 
0 0 0 0 0 0 0 0 0 
0 0 0 0 0 0 0 0 0 
0 0 0 0 0 0 0 0 0 
0 0 0 0 0 0 0 0 0 
0 0 0 0 0 0 0 0 0 
0 0 0 0 0 0 0 0 0 
0 0 0 0 0 0 0 0 0 
0 0 0 0 0 0 0 0 0 
0 0 0 0 0 0 0 0 0 
0 0 0 0 0 0 0 0 0 
0 0 0 0 0 0 0 0 0 
0 0 0 0 0 0 0 0 0 
0 0 0 0 0 0 0 0 0 
0 0 0 0 0 0 0 0 0 
0 0 0 0 0 0 0 0 0 
0 0 0 0 0 0 0 0 0 
0 0 0 0 0 0 0 0 0 
0 0 0 0 0 0 0 0 0 
0 0 0 0 0 0 0 0 0 
0 0 0 0 0 0 0 0 0 
0 0 0 0 0 0 0 0 0 
0 0 0 0 0 0 0 0 0 
0 0 0 0 0 0 0 0 0 
0 0 0 0 0 0 0 0 0 
0 0 0 0 0 0 0 0 0 
0 0 0 0 0 0 0 0 0 
0 0 0 0 0 0 0 0 0 
0 0 0 0 0 0 0 0 0 
0 0 0 0 0 0 0 0 0 
0 0 0 0 0 0 0 0 0 
0 0 0 0 0 0 0 0 0 
0 0 0 0 0 0 0 0 0 
0 0 0 0 0 0 0 0 0 
0 0 0 0 0 0 0 0 0 
0 0 0 0 0 0 0 0 0 
0 0 0 0 0 0 0 0 0 
0 0 0 0 0 0 0 0 0 
0 0 0 0 0 0 0 0 0 
0 0 0 0 0 0 0 0 0 
0 0 0 0 0 0 0 0 0 
0 0 0 0 0 0 0 0 0 
0 0 0 0 0 0 0 0 0 
0 0 0 0 0 0 0 0 0 
0 0 0 0 0 0 0 0 0 
0 0 0 0 0 0 0 0 0 
0 0 0 0 0 0 0 0 0 
0 0 0 0 0 0 0 0 0 
0 0 0 0 0 0 0 0 0 
0 0 0 0 0 0 0 0 0 
0 0 0 0 0 0 0 0 0 
0 0 0 0 0 0 0 0 0 
0 0 0 0 0 0 0 0 0 
0 0 0 0 0 0 0 0 0 
0 0 0 0 0 0 0 0 0 
0 0 0 0 0 0 0 0 0 
0 0 0 0 0 0 0 0 0 
0 0 0 0 0 0 0 0 0 
0 0 0 0 0 0 0 0 0 
0 0 0 0 0 0 0 0 0 
0 0 0 0 0 0 0 0 0 
0 0 0 0 0 0 0 0 0 
0 0 0 0 0 0 0 0 0 
0 0 0 0 0 0 0 0 0 
0 0 0 0 0 0 0 0 0 
0 0 0 0 0 0 0 0 0 
0 0 0 0 0 0 0 0 0 
0 0 0 0 0 0 0 0 0 
0 0 0 0 0 0 0 0 0 
0 0 0 0 0 0 0 0 0 
0 0 0 0 0 0 0 0 0 
0 0 0 0 0 0 0 0 0 
0 0 0 0 0 0 0 0 0 
0 0 0 0 0 0 0 0 0 
0 0 0 0 0 0 0 0 0 
0 0 0 0 0 0 0 0 0 
0 0 0 0 0 0 0 0 0 
0 0 0 0 0 0 0 0 0 
0 0 0 0 0 0 0 0 0 
0 0 0 0 0 0 0 0 0 
0 0 0 0 0 0 0 0 0 
0 0 0 0 0 0 0 0 0 
0 0 0 0 0 0 0 0 0 
0 0 0 0 0 0 0 0 0 
0 0 0 0 0 0 0 0 0 
0 0 0 0 0 0 0 0 0 
0 0 0 0 0 0 0 0 0 
0 0 0 0 0 0 0 0 0 
0 0 0 0 0 0 0 0 0 
0 0 0 0 0 0 0 0 0 
0 0 0 0 0 0 0 0 0 
0 0 0 0 0 0 0 0 0 
0 0 0 0 0 0 0 0 0 
0 0 0 0 0 0 0 0 0 
0 0 0 0 0 0 0 0 0 
0 0 0 0 0 0 0 0 0 
0 0 0 0 0 0 0 0 0 
0 0 0 0 0 0 0 0 0 
0 0 0 0 0 0 0 0 0 
0 0 0 0 0 0 0 0 0 
0 0 0 0 0 0 0 0 0 
0 0 0 0 0 0 0 0 0 
0 0 0 0 0 0 0 0 0 
0 0 0 0 0 0 0 0 0 
0 0 0 0 0 0 0 0 0 
0 0 0 0 0 0 0 0 0 
0 0 0 0 0 0 0 0 0 
0 0 0 0 0 0 0 0 0 
0 0 0 0 0 0 0 0 0 
0 0 0 0 0 0 0 0 0 
0 0 0 0 0 0 0 0 0 
0 0 0 0 0 0 0 0 0 
0 0 0 0 0 0 0 0 0 
0 0 0 0 0 0 0 0 0 
0 0 0 0 0 0 0 0 0 
0 0 0 0 0 0 0 0 0 
0 0 0 0 0 0 0 0 0 
0 0 0 0 0 0 0 0 0 
0 0 0 0 0 0 0 0 0 
0 0 0 0 0 0 0 0 0 
0 0 0 0 0 0 0 0 0 
0 0 0 0 0 0 0 0 0 
0 0 0 0 0 0 0 0 0 
0 0 0 0 0 0 0 0 0 
0 0 0 0 0 0 0 0 0 
0 0 0 0 0 0 0 0 0 
0 0 0 0 0 0 0 0 0 
0 0 0 0 0 0 0 0 0 
0 0 0 0 0 0 0 0 0 
0 0 0 0 0 0 0 0 0 
0 0 0 0 0 0 0 0 0 
0 0 0 0 0 0 0 0 0 
0 0 0 0 0 0 0 0 0 
0 0 0 0 0 0 0 0 0 
0 0 0 0 0 0 0 0 0 
0 0 0 0 0 0 0 0 0 
0 0 0 0 0 0 0 0 0 
0 0 0 0 0 0 0 0 0 
0 0 0 0 0 0 0 0 0 
0 0 0 0 0 0 0 0 0 
0 0 0 0 0 0 0 0 0 
0 0 0 0 0 0 0 0 0 
0 0 0 0 0 0 0 0 0 
0 0 0 0 0 0 0 0 0 
0 0 0 0 0 0 0 0 0 
0 0 0 0 0 0 0 0 0 
0 0 0 0 0 0 0 0 0 
0 0 0 0 0 0 0 0 0 
0 0 0 0 0 0 0 0 0 
0 0 0 0 0 0 0 0 0 
0 0 0 0 0 0 0 0 0 
0 0 0 0 0 0 0 0 0 
0 0 0 0 0 0 0 0 0 
0 0 0 0 0 0 0 0 0 
0 0 0 0 0 0 0 0 0 
0 0 0 0 0 0 0 0 0 
0 0 0 0 0 0 0 0 0 
0 0 0 0 0 0 0 0 0 
0 0 0 0 0 0 0 0 0 
0 0 0 0 0 0 0 0 0 
0 0 0 0 0 0 0 0 0 
0 0 0 0 0 0 0 0 0 
0 0 0 0 0 0 0 0 0 
0 0 0 0 0 0 0 0 0 
0 0 0 0 0 0 0 0 0 
0 0 0 0 0 0 0 0 0 
0 0 0 0 0 0 0 0 0 
0 0 0 0 0 0 0 0 0 
0 0 0 0 0 0 0 0 0 
0 0 0 0 0 0 0 0 0 
0 0 0 0 0 0 0 0 0 
0 0 0 0 0 0 0 0 0 
0 0 0 0 0 0 0 0 0 
0 0 0 0 0 0 0 0 0 
0 0 0 0 0 0 0 0 0 
0 0 0 0 0 0 0 0 0 
0 0 0 0 0 0 0 0 0 
0 0 0 0 0 0 0 0 0 
0 0 0 0 0 0 0 0 0 
0 0 0 0 0 0 0 0 0 
0 0 0 0 0 0 0 0 0 
0 0 0 0 0 0 0 0 0 
0 0 0 0 0 0 0 0 0 
0 0 0 0 0 0 0 0 0 
0 0 0 0 0 0 0 0 0 
0 0 0 0 0 0 0 0 0 
0 0 0 0 0 0 0 0 0 
0 0 0 0 0 0 0 0 0 
0 0 0 0 0 0 0 0 0 
0 0 0 0 0 0 0 0 0 
0 0 0 0 0 0 0 0 0 
0 0 0 0 0 0 0 0 0 
0 0 0 0 0 0 0 0 0 
0 0 0 0 0 0 0 0 0 
0 0 0 0 0 0 0 0 0 
0 0 0 0 0 0 0 0 0 
0 0 0 0 0 0 0 0 0 
0 0 0 0 0 0 0 0 0 
0 0 0 0 0 0 0 0 0 
0 0 0 0 0 0 0 0 0 
0 0 0 0 0 0 0 0 0 
0 0 0 0 0 0 0 0 0 
0 0 0 0 0 0 0 0 0 
0 0 0 0 0 0 0 0 0 
0 0 0 0 0 0 0 0 0 
0 0 0 0 0 0 0 0 0 
0 0 0 0 0 0 0 0 0 
0 0 0 0 0 0 0 0 0 
0 0 0 0 0 0 0 0 0 
0 0 0 0 0 0 0 0 0 
0 0 0 0 0 0 0 0 0 
0 0 0 0 0 0 0 0 0 
0 0 0 0 0 0 0 0 0 
0 0 0 0 0 0 0 0 0 
0 0 0 0 0 0 0 0 0 
0 0 0 0 0 0 0 0 0 
0 0 0 0 0 0 0 0 0 
0 0 0 0 0 0 0 0 0 
0 0 0 0 0 0 0 0 0 
0 0 0 0 0 0 0 0 0 
0 0 0 0 0 0 0 0 0 
0 0 0 0 0 0 0 0 0 
0 0 0 0 0 0 0 0 0 
0 0 0 0 0 0 0 0 0 
0 0 0 0 0 0 0 0 0 
0 0 0 0 0 0 0 0 0 
0 0 0 0 0 0 0 0 0 
0 0 0 0 0 0 0 0 0 
0 0 0 0 0 0 0 0 0 
0 0 0 0 0 0 0 0 0 
0 0 0 0 0 0 0 0 0 
0 0 0 0 0 0 0 0 0 
0 0 0 0 0 0 0 0 0 
0 0 0 0 0 0 0 0 0 
0 0 0 0 0 0 0 0 0 
0 0 0 0 0 0 0 0 0 
0 0 0 0 0 0 0 0 0 
0 0 0 0 0 0 0 0 0 
0 0 0 0 0 0 0 0 0 
0 0 0 0 0 0 0 0 0 
0 0 0 0 0 0 0 0 0 
0 0 0 0 0 0 0 0 0 
0 0 0 0 0 0 0 0 0 
0 0 0 0 0 0 0 0 0 
0 0 0 0 0 0 0 0 0 
0 0 0 0 0 0 0 0 0 
0 0 0 0 0 0 0 0 0 
0 0 0 0 0 0 0 0 0 
0 0 0 0 0 0 0 0 0 
0 0 0 0 0 0 0 0 0 
0 0 0 0 0 0 0 0 0 
0 0 0 0 0 0 0 0 0 
0 0 0 0 0 0 0 0 0 
0 0 0 0 0 0 0 0 0 
0 0 0 0 0 0 0 0 0 
0 0 0 0 0 0 0 0 0 
0 0 0 0 0 0 0 0 0 
0 0 0 0 0 0 0 0 0 
0 0 0 0 0 0 0 0 0 
0 0 0 0 0 0 0 0 0 
0 0 0 0 0 0 0 0 0 
0 0 0 0 0 0 0 0 0 
0 0 0 0 0 0 0 0 0 
0 0 0 0 0 0 0 0 0 
0 0 0 0 0 0 0 0 0 
0 0 0 0 0 0 0 0 0 
0 0 0 0 0 0 0 0 0 
0 0 0 0 0 0 0 0 0 
0 0 0 0 0 0 0 0 0 
0 0 0 0 0 0 0 0 0 
0 0 0 0 0 0 0 0 0 
0 0 0 0 0 0 0 0 0 
0 0 0 0 0 0 0 0 0 
0 0 0 0 0 0 0 0 0 
0 0 0 0 0 0 0 0 0 
0 0 0 0 0 0 0 0 0 
0 0 0 0 0 0 0 0 0 
0 0 0 0 0 0 0 0 0 
0 0 0 0 0 0 0 0 0 
0 0 0 0 0 0 0 0 0 
0 0 0 0 0 0 0 0 0 
0 0 0 0 0 0 0 0 0 
0 0 0 0 0 0 0 0 0 
0 0 0 0 0 0 0 0 0 
0 0 0 0 0 0 0 0 0 
0 0 0 0 0 0 0 0 0 
0 0 0 0 0 0 0 0 0 
0 0 0 0 0 0 0 0 0 
0 0 0 0 0 0 0 0 0 
0 0 0 0 0 0 0 0 0 
0 0 0 0 0 0 0 0 0 
0 0 0 0 0 0 0 0 0 
0 0 0 0 0 0 0 0 0 
0 0 0 0 0 0 0 0 0 
0 0 0 0 0 0 0 0 0 
0 0 0 0 0 0 0 0 0 
0 0 0 0 0 0 0 0 0 
0 0 0 0 0 0 0 0 0 
0 0 0 0 0 0 0 0 0 
0 0 0 0 0 0 0 0 0 
0 0 0 0 0 0 0 0 0 
0 0 0 0 0 0 0 0 0 
0 0 0 0 0 0 0 0 0 
0 0 0 0 0 0 0 0 0 
0 0 0 0 0 0 0 0 0 
0 0 0 0 0 0 0 0 0 
0 0 0 0 0 0 0 0 0 
0 0 0 0 0 0 0 0 0 
0 0 0 0 0 0 0 0 0 
0 0 0 0 0 0 0 0 0 
0 0 0 0 0 0 0 0 0 
0 0 0 0 0 0 0 0 0 
0 0 0 0 0 0 0 0 0 
0 0 0 0 0 0 0 0 0 
0 0 0 0 0 0 0 0 0 
0 0 0 0 0 0 0 0 0 
0 0 0 0 0 0 0 0 0 
0 0 0 0 0 0 0 0 0 
0 0 0 0 0 0 0 0 0 
0 0 0 0 0 0 0 0 0 
0 0 0 0 0 0 0 0 0 
0 0 0 0 0 0 0 0 0 
0 0 0 0 0 0 0 0 0 
0 0 0 0 0 0 0 0 0 
0 0 0 0 0 0 0 0 0 
0 0 0 0 0 0 0 0 0 
0 0 0 0 0 0 0 0 0 
0 0 0 0 0 0 0 0 0 
0 0 0 0 0 0 0 0 0 
0 0 0 0 0 0 0 0 0 
0 0 0 0 0 0 0 0 0 
0 0 0 0 0 0 0 0 0 
0 0 0 0 0 0 0 0 0 
0 0 0 0 0 0 0 0 0 
0 0 0 0 0 0 0 0 0 
0 0 0 0 0 0 0 0 0 
0 0 0 0 0 0 0 0 0 
0 0 0 0 0 0 0 0 0 
0 0 0 0 0 0 0 0 0 
0 0 0 0 0 0 0 0 0 
0 0 0 0 0 0 0 0 0 
0 0 0 0 0 0 0 0 0 
0 0 0 0 0 0 0 0 0 
0 0 0 0 0 0 0 0 0 
0 0 0 0 0 0 0 0 0 
0 0 0 0 0 0 0 0 0 
0 0 0 0 0 0 0 0 0 
0 0 0 0 0 0 0 0 0 
0 0 0 0 0 0 0 0 0 
0 0 0 0 0 0 0 0 0 
0 0 0 0 0 0 0 0 0 
0 0 0 0 0 0 0 0 0 
0 0 0 0 0 0 0 0 0 
0 0 0 0 0 0 0 0 0 
0 0 0 0 0 0 0 0 0 
0 0 0 0 0 0 0 0 0 
0 0 0 0 0 0 0 0 0 
0 0 0 0 0 0 0 0 0 
0 0 0 0 0 0 0 0 0 
0 0 0 0 0 0 0 0 0 
0 0 0 0 0 0 0 0 0 
0 0 0 0 0 0 0 0 0 
0 0 0 0 0 0 0 0 0 
0 0 0 0 0 0 0 0 0 
0 0 0 0 0 0 0 0 0 
0 0 0 0 0 0 0 0 0 
0 0 0 0 0 0 0 0 0 
0 0 0 0 0 0 0 0 0 
0 0 0 0 0 0 0 0 0 
0 0 0 0 0 0 0 0 0 
0 0 0 0 0 0 0 0 0 
0 0 0 0 0 0 0 0 0 
0 0 0 0 0 0 0 0 0 
0 0 0 0 0 0 0 0 0 
0 0 0 0 0 0 0 0 0 
0 0 0 0 0 0 0 0 0 
0 0 0 0 0 0 0 0 0 
0 0 0 0 0 0 0 0 0 
0 0 0 0 0 0 0 0 0 
0 0 0 0 0 0 0 0 0 
0 0 0 0 0 0 0 0 0 
0 0 0 0 0 0 0 0 0 
0 0 0 0 0 0 0 0 0 
0 0 0 0 0 0 0 0 0 
0 0 0 0 0 0 0 0 0 
0 0 0 0 0 0 0 0 0 
0 0 0 0 0 0 0 0 0 
0 0 0 0 0 0 0 0 0 
0 0 0 0 0 0 0 0 0 
0 0 0 0 0 0 0 0 0 
0 0 0 0 0 0 0 0 0 
0 0 0 0 0 0 0 0 0 
0 0 0 0 0 0 0 0 0 
0 0 0 0 0 0 0 0 0 
0 0 0 0 0 0 0 0 0 
0 0 0 0 0 0 0 0 0 
0 0 0 0 0 0 0 0 0 
0 0 0 0 0 0 0 0 0 
0 0 0 0 0 0 0 0 0 
0 0 0 0 0 0 0 0 0 
0 0 0 0 0 0 0 0 0 
0 0 0 0 0 0 0 0 0 
0 0 0 0 0 0 0 0 0 
0 0 0 0 0 0 0 0 0 
0 0 0 0 0 0 0 0 0 
0 0 0 0 0 0 0 0 0 
0 0 0 0 0 0 0 0 0 
0 0 0 0 0 0 0 0 0 
0 0 0 0 0 0 0 0 0 
0 0 0 0 0 0 0 0 0 
0 0 0 0 0 0 0 0 0 
0 0 0 0 0 0 0 0 0 
0 0 0 0 0 0 0 0 0 
0 0 0 0 0 0 0 0 0 
0 0 0 0 0 0 0 0 0 
0 0 0 0 0 0 0 0 0 
0 0 0 0 0 0 0 0 0 
0 0 0 0 0 0 0 0 0 
0 0 0 0 0 0 0 0 0 
0 0 0 0 0 0 0 0 0 
0 0 0 0 0 0 0 0 0 
0 0 0 0 0 0 0 0 0 
0 0 0 0 0 0 0 0 0 
0 0 0 0 0 0 0 0 0 
0 0 0 0 0 0 0 0 0 
0 0 0 0 0 0 0 0 0 
0 0 0 0 0 0 0 0 0 
0 0 0 0 0 0 0 0 0 
0 0 0 0 0 0 0 0 0 
0 0 0 0 0 0 0 0 0 
0 0 0 0 0 0 0 0 0 
0 0 0 0 0 0 0 0 0 
0 0 0 0 0 0 0 0 0 
0 0 0 0 0 0 0 0 0 
0 0 0 0 0 0 0 0 0 
0 0 0 0 0 0 0 0 0 
0 0 0 0 0 0 0 0 0 
0 0 0 0 0 0 0 0 0 
0 0 0 0 0 0 0 0 0 
0 0 0 0 0 0 0 0 0 
0 0 0 0 0 0 0 0 0 
0 0 0 0 0 0 0 0 0 
0 0 0 0 0 0 0 0 0 
0 0 0 0 0 0 0 0 0 
0 0 0 0 0 0 0 0 0 
0 0 0 0 0 0 0 0 0 
0 0 0 0 0 0 0 0 0 
0 0 0 0 0 0 0 0 0 
0 0 0 0 0 0 0 0 0 
0 0 0 0 0 0 0 0 0 
0 0 0 0 0 0 0 0 0 
0 0 0 0 0 0 0 0 0 
0 0 0 0 0 0 0 0 0 
0 0 0 0 0 0 0 0 0 
0 0 0 0 0 0 0 0 0 
0 0 0 0 0 0 0 0 0 
0 0 0 0 0 0 0 0 0 
0 0 0 0 0 0 0 0 0 
0 0 0 0 0 0 0 0 0 
0 0 0 0 0 0 0 0 0 
0 0 0 0 0 0 0 0 0 
0 0 0 0 0 0 0 0 0 
0 0 0 0 0 0 0 0 0 
0 0 0 0 0 0 0 0 0 
0 0 0 0 0 0 0 0 0 
0 0 0 0 0 0 0 0 0 
0 0 0 0 0 0 0 0 0 
0 0 0 0 0 0 0 0 0 
0 0 0 0 0 0 0 0 0 
0 0 0 0 0 0 0 0 0 
0 0 0 0 0 0 0 0 0 
0 0 0 0 0 0 0 0 0 
0 0 0 0 0 0 0 0 0 
0 0 0 0 0 0 0 0 0 
0 0 0 0 0 0 0 0 0 
0 0 0 0 0 0 0 0 0 
0 0 0 0 0 0 0 0 0 
0 0 0 0 0 0 0 0 0 
0 0 0 0 0 0 0 0 0 
0 0 0 0 0 0 0 0 0 
0 0 0 0 0 0 0 0 0 
0 0 0 0 0 0 0 0 0 
0 0 0 0 0 0 0 0 0 
0 0 0 0 0 0 0 0 0 
0 0 0 0 0 0 0 0 0 
0 0 0 0 0 0 0 0 0 
0 0 0 0 0 0 0 0 0 
0 0 0 0 0 0 0 0 0 
0 0 0 0 0 0 0 0 0 
0 0 0 0 0 0 0 0 0 
0 0 0 0 0 0 0 0 0 
0 0 0 0 0 0 0 0 0 
0 0 0 0 0 0 0 0 0 
0 0 0 0 0 0 0 0 0 
0 0 0 0 0 0 0 0 0 
0 0 0 0 0 0 0 0 0 
0 0 0 0 0 0 0 0 0 
0 0 0 0 0 0 0 0 0 
0 0 0 0 0 0 0 0 0 
0 0 0 0 0 0 0 0 0 
0 0 0 0 0 0 0 0 0 
0 0 0 0 0 0 0 0 0 
0 0 0 0 0 0 0 0 0 
0 0 0 0 0 0 0 0 0 
0 0 0 0 0 0 0 0 0 
0 0 0 0 0 0 0 0 0 
0 0 0 0 0 0 0 0 0 
0 0 0 0 0 0 0 0 0 
0 0 0 0 0 0 0 0 0 
0 0 0 0 0 0 0 0 0 
0 0 0 0 0 0 0 0 0 
0 0 0 0 0 0 0 0 0 
0 0 0 0 0 0 0 0 0 
0 0 0 0 0 0 0 0 0 
0 0 0 0 0 0 0 0 0 
0 0 0 0 0 0 0 0 0 
0 0 0 0 0 0 0 0 0 
0 0 0 0 0 0 0 0 0 
0 0 0 0 0 0 0 0 0 
0 0 0 0 0 0 0 0 0 
0 0 0 0 0 0 0 0 0 
0 0 0 0 0 0 0 0 0 
0 0 0 0 0 0 0 0 0 
0 0 0 0 0 0 0 0 0 
0 0 0 0 0 0 0 0 0 
0 0 0 0 0 0 0 0 0 
0 0 0 0 0 0 0 0 0 
0 0 0 0 0 0 0 0 0 
0 0 0 0 0 0 0 0 0 
0 0 0 0 0 0 0 0 0 
0 0 0 0 0 0 0 0 0 
0 0 0 0 0 0 0 0 0 
0 0 0 0 0 0 0 0 0 
0 0 0 0 0 0 0 0 0 
0 0 0 0 0 0 0 0 0 
0 0 0 0 0 0 0 0 0 
0 0 0 0 0 0 0 0 0 
0 0 0 0 0 0 0 0 0 
0 0 0 0 0 0 0 0 0 
0 0 0 0 0 0 0 0 0 
0 0 0 0 0 0 0 0 0 
0 0 0 0 0 0 0 0 0 
0 0 0 0 0 0 0 0 0 
0 0 0 0 0 0 0 0 0 
0 0 0 0 0 0 0 0 0 
0 0 0 0 0 0 0 0 0 
0 0 0 0 0 0 0 0 0 
0 0 0 0 0 0 0 0 0 
0 0 0 0 0 0 0 0 0 
0 0 0 0 0 0 0 0 0 
0 0 0 0 0 0 0 0 0 
0 0 0 0 0 0 0 0 0 
0 0 0 0 0 0 0 0 0 
0 0 0 0 0 0 0 0 0 
0 0 0 0 0 0 0 0 0 
0 0 0 0 0 0 0 0 0 
0 0 0 0 0 0 0 0 0 
0 0 0 0 0 0 0 0 0 
0 0 0 0 0 0 0 0 0 
0 0 0 0 0 0 0 0 0 
0 0 0 0 0 0 0 0 0 
0 0 0 0 0 0 0 0 0 
0 0 0 0 0 0 0 0 0 
0 0 0 0 0 0 0 0 0 
0 0 0 0 0 0 0 0 0 
0 0 0 0 0 0 0 0 0 
0 0 0 0 0 0 0 0 0 
0 0 0 0 0 0 0 0 0 
0 0 0 0 0 0 0 0 0 
0 0 0 0 0 0 0 0 0 
0 0 0 0 0 0 0 0 0 
0 0 0 0 0 0 0 0 0 
0 0 0 0 0 0 0 0 0 
0 0 0 0 0 0 0 0 0 
0 0 0 0 0 0 0 0 0 
0 0 0 0 0 0 0 0 0 
0 0 0 0 0 0 0 0 0 
0 0 0 0 0 0 0 0 0 
0 0 0 0 0 0 0 0 0 
0 0 0 0 0 0 0 0 0 
0 0 0 0 0 0 0 0 0 
0 0 0 0 0 0 0 0 0 
0 0 0 0 0 0 0 0 0 
0 0 0 0 0 0 0 0 0 
0 0 0 0 0 0 0 0 0 
0 0 0 0 0 0 0 0 0 
0 0 0 0 0 0 0 0 0 
0 0 0 0 0 0 0 0 0 
0 0 0 0 0 0 0 0 0 
0 0 0 0 0 0 0 0 0 
0 0 0 0 0 0 0 0 0 
0 0 0 0 0 0 0 0 0 
0 0 0 0 0 0 0 0 0 
0 0 0 0 0 0 0 0 0 
0 0 0 0 0 0 0 0 0 
0 0 0 0 0 0 0 0 0 
0 0 0 0 0 0 0 0 0 
0 0 0 0 0 0 0 0 0 
0 0 0 0 0 0 0 0 0 
0 0 0 0 0 0 0 0 0 
0 0 0 0 0 0 0 0 0 
0 0 0 0 0 0 0 0 0 
0 0 0 0 0 0 0 0 0 
0 0 0 0 0 0 0 0 0 
0 0 0 0 0 0 0 0 0 
0 0 0 0 0 0 0 0 0 
0 0 0 0 0 0 0 0 0 
0 0 0 0 0 0 0 0 0 
0 0 0 0 0 0 0 0 0 
0 0 0 0 0 0 0 0 0 
0 0 0 0 0 0 0 0 0 
0 0 0 0 0 0 0 0 0 
0 0 0 0 0 0 0 0 0 
0 0 0 0 0 0 0 0 0 
0 0 0 0 0 0 0 0 0 
0 0 0 0 0 0 0 0 0 
0 0 0 0 0 0 0 0 0 
0 0 0 0 0 0 0 0 0 
0 0 0 0 0 0 0 0 0 
0 0 0 0 0 0 0 0 0 
0 0 0 0 0 0 0 0 0 
0 0 0 0 0 0 0 0 0 
0 0 0 0 0 0 0 0 0 
0 0 0 0 0 0 0 0 0 
0 0 0 0 0 0 0 0 0 
0 0 0 0 0 0 0 0 0 
0 0 0 0 0 0 0 0 0 
0 0 0 0 0 0 0 0 0 
0 0 0 0 0 0 0 0 0 
0 0 0 0 0 0 0 0 0 
0 0 0 0 0 0 0 0 0 
0 0 0 0 0 0 0 0 0 
0 0 0 0 0 0 0 0 0 
0 0 0 0 0 0 0 0 0 
0 0 0 0 0 0 0 0 0 
0 0 0 0 0 0 0 0 0 
0 0 0 0 0 0 0 0 0 
0 0 0 0 0 0 0 0 0 
0 0 0 0 0 0 0 0 0 
0 0 0 0 0 0 0 0 0 
0 0 0 0 0 0 0 0 0 
0 0 0 0 0 0 0 0 0 
0 0 0 0 0 0 0 0 0 
0 0 0 0 0 0 0 0 0 
0 0 0 0 0 0 0 0 0 
0 0 0 0 0 0 0 0 0 
0 0 0 0 0 0 0 0 0 
0 0 0 0 0 0 0 0 0 
0 0 0 0 0 0 0 0 0 
0 0 0 0 0 0 0 0 0 
0 0 0 0 0 0 0 0 0 
0 0 0 0 0 0 0 0 0 
0 0 0 0 0 0 0 0 0 
0 0 0 0 0 0 0 0 0 
0 0 0 0 0 0 0 0 0 
0 0 0 0 0 0 0 0 0 
0 0 0 0 0 0 0 0 0 
0 0 0 0 0 0 0 0 0 
0 0 0 0 0 0 0 0 0 
0 0 0 0 0 0 0 0 0 
0 0 0 0 0 0 0 0 0 
0 0 0 0 0 0 0 0 0 
0 0 0 0 0 0 0 0 0 
0 0 0 0 0 0 0 0 0 
0 0 0 0 0 0 0 0 0 
0 0 0 0 0 0 0 0 0 
0 0 0 0 0 0 0 0 0 
0 0 0 0 0 0 0 0 0 
0 0 0 0 0 0 0 0 0 
0 0 0 0 0 0 0 0 0 
0 0 0 0 0 0 0 0 0 
0 0 0 0 0 0 0 0 0 
0 0 0 0 0 0 0 0 0 
0 0 0 0 0 0 0 0 0 
0 0 0 0 0 0 0 0 0 
0 0 0 0 0 0 0 0 0 
0 0 0 0 0 0 0 0 0 
0 0 0 0 0 0 0 0 0 
0 0 0 0 0 0 0 0 0 
0 0 0 0 0 0 0 0 0 
0 0 0 0 0 0 0 0 0 
0 0 0 0 0 0 0 0 0 
0 0 0 0 0 0 0 0 0 
0 0 0 0 0 0 0 0 0 
0 0 0 0 0 0 0 0 0 
0 0 0 0 0 0 0 0 0 
0 0 0 0 0 0 0 0 0 
0 0 0 0 0 0 0 0 0 
0 0 0 0 0 0 0 0 0 
0 0 0 0 0 0 0 0 0 
0 0 0 0 0 0 0 0 0 
0 0 0 0 0 0 0 0 0 
0 0 0 0 0 0 0 0 0 
0 0 0 0 0 0 0 0 0 
0 0 0 0 0 0 0 0 0 
0 0 0 0 0 0 0 0 0 
0 0 0 0 0 0 0 0 0 
0 0 0 0 0 0 0 0 0 
0 0 0 0 0 0 0 0 0 
0 0 0 0 0 0 0 0 0 
0 0 0 0 0 0 0 0 0 
0 0 0 0 0 0 0 0 0 
0 0 0 0 0 0 0 0 0 
0 0 0 0 0 0 0 0 0 
0 0 0 0 0 0 0 0 0 
0 0 0 0 0 0 0 0 0 
0 0 0 0 0 0 0 0 0 
0 0 0 0 0 0 0 0 0 
0 0 0 0 0 0 0 0 0 
0 0 0 0 0 0 0 0 0 
0 0 0 0 0 0 0 0 0 
0 0 0 0 0 0 0 0 0 
0 0 0 0 0 0 0 0 0 
0 0 0 0 0 0 0 0 0 
0 0 0 0 0 0 0 0 0 
0 0 0 0 0 0 0 0 0 
0 0 0 0 0 0 0 0 0 
0 0 0 0 0 0 0 0 0 
0 0 0 0 0 0 0 0 0 
0 0 0 0 0 0 0 0 0 
0 0 0 0 0 0 0 0 0 
0 0 0 0 0 0 0 0 0 
0 0 0 0 0 0 0 0 0 
0 0 0 0 0 0 0 0 0 
0 0 0 0 0 0 0 0 0 
0 0 0 0 0 0 0 0 0 
0 0 0 0 0 0 0 0 0 
0 0 0 0 0 0 0 0 0 
0 0 0 0 0 0 0 0 0 
0 0 0 0 0 0 0 0 0 
0 0 0 0 0 0 0 0 0 
0 0 0 0 0 0 0 0 0 
0 0 0 0 0 0 0 0 0 
0 0 0 0 0 0 0 0 0 
0 0 0 0 0 0 0 0 0 
0 0 0 0 0 0 0 0 0 
0 0 0 0 0 0 0 0 0 
0 0 0 0 0 0 0 0 0 
0 0 0 0 0 0 0 0 0 
0 0 0 0 0 0 0 0 0 
0 0 0 0 0 0 0 0 0 
0 0 0 0 0 0 0 0 0 
0 0 0 0 0 0 0 0 0 
0 0 0 0 0 0 0 0 0 
0 0 0 0 0 0 0 0 0 
0 0 0 0 0 0 0 0 0 
0 0 0 0 0 0 0 0 0 
0 0 0 0 0 0 0 0 0 
0 0 0 0 0 0 0 0 0 
0 0 0 0 0 0 0 0 0 
0 0 0 0 0 0 0 0 0 
0 0 0 0 0 0 0 0 0 
0 0 0 0 0 0 0 0 0 
0 0 0 0 0 0 0 0 0 
0 0 0 0 0 0 0 0 0 
0 0 0 0 0 0 0 0 0 
0 0 0 0 0 0 0 0 0 
0 0 0 0 0 0 0 0 0 
0 0 0 0 0 0 0 0 0 
0 0 0 0 0 0 0 0 0 
0 0 0 0 0 0 0 0 0 
0 0 0 0 0 0 0 0 0 
0 0 0 0 0 0 0 0 0 
0 0 0 0 0 0 0 0 0 
0 0 0 0 0 0 0 0 0 
0 0 0 0 0 0 0 0 0 
0 0 0 0 0 0 0 0 0 
0 0 0 0 0 0 0 0 0 
0 0 0 0 0 0 0 0 0 
0 0 0 0 0 0 0 0 0 
0 0 0 0 0 0 0 0 0 
0 0 0 0 0 0 0 0 0 
0 0 0 0 0 0 0 0 0 
0 0 0 0 0 0 0 0 0 
0 0 0 0 0 0 0 0 0 
0 0 0 0 0 0 0 0 0 
0 0 0 0 0 0 0 0 0 
0 0 0 0 0 0 0 0 0 
0 0 0 0 0 0 0 0 0 
0 0 0 0 0 0 0 0 0 
0 0 0 0 0 0 0 0 0 
0 0 0 0 0 0 0 0 0 
0 0 0 0 0 0 0 0 0 
0 0 0 0 0 0 0 0 0 
0 0 0 0 0 0 0 0 0 
0 0 0 0 0 0 0 0 0 
0 0 0 0 0 0 0 0 0 
0 0 0 0 0 0 0 0 0 
0 0 0 0 0 0 0 0 0 
0 0 0 0 0 0 0 0 0 
0 0 0 0 0 0 0 0 0 
0 0 0 0 0 0 0 0 0 
0 0 0 0 0 0 0 0 0 
0 0 0 0 0 0 0 0 0 
0 0 0 0 0 0 0 0 0 
0 0 0 0 0 0 0 0 0 
0 0 0 0 0 0 0 0 0 
0 0 0 0 0 0 0 0 0 
0 0 0 0 0 0 0 0 0 
0 0 0 0 0 0 0 0 0 
0 0 0 0 0 0 0 0 0 
0 0 0 0 0 0 0 0 0 
0 0 0 0 0 0 0 0 0 
0 0 0 0 0 0 0 0 0 
0 0 0 0 0 0 0 0 0 
0 0 0 0 0 0 0 0 0 
0 0 0 0 0 0 0 0 0 
0 0 0 0 0 0 0 0 0 
0 0 0 0 0 0 0 0 0 
0 0 0 0 0 0 0 0 0 
0 0 0 0 0 0 0 0 0 
0 0 0 0 0 0 0 0 0 
0 0 0 0 0 0 0 0 0 
0 0 0 0 0 0 0 0 0 
0 0 0 0 0 0 0 0 0 
0 0 0 0 0 0 0 0 0 
0 0 0 0 0 0 0 0 0 
0 0 0 0 0 0 0 0 0 
0 0 0 0 0 0 0 0 0 
0 0 0 0 0 0 0 0 0 
0 0 0 0 0 0 0 0 0 
0 0 0 0 0 0 0 0 0 
0 0 0 0 0 0 0 0 0 
0 0 0 0 0 0 0 0 0 
0 0 0 0 0 0 0 0 0 
0 0 0 0 0 0 0 0 0 
0 0 0 0 0 0 0 0 0 
0 0 0 0 0 0 0 0 0 
0 0 0 0 0 0 0 0 0 
0 0 0 0 0 0 0 0 0 
0 0 0 0 0 0 0 0 0 
0 0 0 0 0 0 0 0 0 
0 0 0 0 0 0 0 0 0 
0 0 0 0 0 0 0 0 0 
0 0 0 0 0 0 0 0 0 
0 0 0 0 0 0 0 0 0 
0 0 0 0 0 0 0 0 0 
0 0 0 0 0 0 0 0 0 
0 0 0 0 0 0 0 0 0 
0 0 0 0 0 0 0 0 0 
0 0 0 0 0 0 0 0 0 
0 0 0 0 0 0 0 0 0 
0 0 0 0 0 0 0 0 0 
0 0 0 0 0 0 0 0 0 
0 0 0 0 0 0 0 0 0 
0 0 0 0 0 0 0 0 0 
0 0 0 0 0 0 0 0 0 
0 0 0 0 0 0 0 0 0 
0 0 0 0 0 0 0 0 0 
0 0 0 0 0 0 0 0 0 
0 0 0 0 0 0 0 0 0 
0 0 0 0 0 0 0 0 0 
0 0 0 0 0 0 0 0 0 
0 0 0 0 0 0 0 0 0 
0 0 0 0 0 0 0 0 0 
0 0 0 0 0 0 0 0 0 
0 0 0 0 0 0 0 0 0 
0 0 0 0 0 0 0 0 0 
0 0 0 0 0 0 0 0 0 
0 0 0 0 0 0 0 0 0 
0 0 0 0 0 0 0 0 0 
0 0 0 0 0 0 0 0 0 
0 0 0 0 0 0 0 0 0 
0 0 0 0 0 0 0 0 0 
0 0 0 0 0 0 0 0 0 
0 0 0 0 0 0 0 0 0 
0 0 0 0 0 0 0 0 0 
0 0 0 0 0 0 0 0 0 
0 0 0 0 0 0 0 0 0 
0 0 0 0 0 0 0 0 0 
0 0 0 0 0 0 0 0 0 
0 0 0 0 0 0 0 0 0 
0 0 0 0 0 0 0 0 0 
0 0 0 0 0 0 0 0 0 
0 0 0 0 0 0 0 0 0 
0 0 0 0 0 0 0 0 0 
0 0 0 0 0 0 0 0 0 
0 0 0 0 0 0 0 0 0 
0 0 0 0 0 0 0 0 0 
0 0 0 0 0 0 0 0 0 
0 0 0 0 0 0 0 0 0 
0 0 0 0 0 0 0 0 0 
0 0 0 0 0 0 0 0 0 
0 0 0 0 0 0 0 0 0 
0 0 0 0 0 0 0 0 0 
0 0 0 0 0 0 0 0 0 
0 0 0 0 0 0 0 0 0 
0 0 0 0 0 0 0 0 0 
0 0 0 0 0 0 0 0 0 
0 0 0 0 0 0 0 0 0 
0 0 0 0 0 0 0 0 0 
0 0 0 0 0 0 0 0 0 
0 0 0 0 0 0 0 0 0 
0 0 0 0 0 0 0 0 0 
0 0 0 0 0 0 0 0 0 
0 0 0 0 0 0 0 0 0 
0 0 0 0 0 0 0 0 0 
0 0 0 0 0 0 0 0 0 
0 0 0 0 0 0 0 0 0 
0 0 0 0 0 0 0 0 0 
0 0 0 0 0 0 0 0 0 
0 0 0 0 0 0 0 0 0 
0 0 0 0 0 0 0 0 0 
0 0 0 0 0 0 0 0 0 
0 0 0 0 0 0 0 0 0 
0 0 0 0 0 0 0 0 0 
0 0 0 0 0 0 0 0 0 
0 0 0 0 0 0 0 0 0 
0 0 0 0 0 0 0 0 0 
0 0 0 0 0 0 0 0 0 
0 0 0 0 0 0 0 0 0 
0 0 0 0 0 0 0 0 0 
0 0 0 0 0 0 0 0 0 
0 0 0 0 0 0 0 0 0 
0 0 0 0 0 0 0 0 0 
0 0 0 0 0 0 0 0 0 
0 0 0 0 0 0 0 0 0 
0 0 0 0 0 0 0 0 0 
0 0 0 0 0 0 0 0 0 
0 0 0 0 0 0 0 0 0 
0 0 0 0 0 0 0 0 0 
0 0 0 0 0 0 0 0 0 
0 0 0 0 0 0 0 0 0 
0 0 0 0 0 0 0 0 0 
0 0 0 0 0 0 0 0 0 
0 0 0 0 0 0 0 0 0 
0 0 0 0 0 0 0 0 0 
0 0 0 0 0 0 0 0 0 
0 0 0 0 0 0 0 0 0 
0 0 0 0 0 0 0 0 0 
0 0 0 0 0 0 0 0 0 
0 0 0 0 0 0 0 0 0 
0 0 0 0 0 0 0 0 0 
0 0 0 0 0 0 0 0 0 
0 0 0 0 0 0 0 0 0 
0 0 0 0 0 0 0 0 0 
0 0 0 0 0 0 0 0 0 
0 0 0 0 0 0 0 0 0 
0 0 0 0 0 0 0 0 0 
0 0 0 0 0 0 0 0 0 
0 0 0 0 0 0 0 0 0 
0 0 0 0 0 0 0 0 0 
0 0 0 0 0 0 0 0 0 
0 0 0 0 0 0 0 0 0 
0 0 0 0 0 0 0 0 0 
0 0 0 0 0 0 0 0 0 
0 0 0 0 0 0 0 0 0 
0 0 0 0 0 0 0 0 0 
0 0 0 0 0 0 0 0 0 
0 0 0 0 0 0 0 0 0 
0 0 0 0 0 0 0 0 0 
0 0 0 0 0 0 0 0 0 
0 0 0 0 0 0 0 0 0 
0 0 0 0 0 0 0 0 0 
0 0 0 0 0 0 0 0 0 
0 0 0 0 0 0 0 0 0 
0 0 0 0 0 0 0 0 0 
0 0 0 0 0 0 0 0 0 
0 0 0 0 0 0 0 0 0 
0 0 0 0 0 0 0 0 0 
0 0 0 0 0 0 0 0 0 
0 0 0 0 0 0 0 0 0 
0 0 0 0 0 0 0 0 0 
0 0 0 0 0 0 0 0 0 
0 0 0 0 0 0 0 0 0 
0 0 0 0 0 0 0 0 0 
0 0 0 0 0 0 0 0 0 
0 0 0 0 0 0 0 0 0 
0 0 0 0 0 0 0 0 0 
0 0 0 0 0 0 0 0 0 
0 0 0 0 0 0 0 0 0 
0 0 0 0 0 0 0 0 0 
0 0 0 0 0 0 0 0 0 
0 0 0 0 0 0 0 0 0 
0 0 0 0 0 0 0 0 0 
0 0 0 0 0 0 0 0 0 
0 0 0 0 0 0 0 0 0 
0 0 0 0 0 0 0 0 0 
0 0 0 0 0 0 0 0 0 
0 0 0 0 0 0 0 0 0 
0 0 0 0 0 0 0 0 0 
0 0 0 0 0 0 0 0 0 
0 0 0 0 0 0 0 0 0 
0 0 0 0 0 0 0 0 0 
0 0 0 0 0 0 0 0 0 
0 0 0 0 0 0 0 0 0 
0 0 0 0 0 0 0 0 0 
0 0 0 0 0 0 0 0 0 
0 0 0 0 0 0 0 0 0 
0 0 0 0 0 0 0 0 0 
0 0 0 0 0 0 0 0 0 
0 0 0 0 0 0 0 0 0 
0 0 0 0 0 0 0 0 0 
0 0 0 0 0 0 0 0 0 
0 0 0 0 0 0 0 0 0 
0 0 0 0 0 0 0 0 0 
0 0 0 0 0 0 0 0 0 
0 0 0 0 0 0 0 0 0 
0 0 0 0 0 0 0 0 0 
0 0 0 0 0 0 0 0 0 
0 0 0 0 0 0 0 0 0 
0 0 0 0 0 0 0 0 0 
0 0 0 0 0 0 0 0 0 
0 0 0 0 0 0 0 0 0 
0 0 0 0 0 0 0 0 0 
0 0 0 0 0 0 0 0 0 
0 0 0 0 0 0 0 0 0 
0 0 0 0 0 0 0 0 0 
0 0 0 0 0 0 0 0 0 
0 0 0 0 0 0 0 0 0 
0 0 0 0 0 0 0 0 0 
0 0 0 0 0 0 0 0 0 
0 0 0 0 0 0 0 0 0 
0 0 0 0 0 0 0 0 0 
0 0 0 0 0 0 0 0 0 
0 0 0 0 0 0 0 0 0 
0 0 0 0 0 0 0 0 0 
0 0 0 0 0 0 0 0 0 
0 0 0 0 0 0 0 0 0 
0 0 0 0 0 0 0 0 0 
0 0 0 0 0 0 0 0 0 
0 0 0 0 0 0 0 0 0 
0 0 0 0 0 0 0 0 0 
0 0 0 0 0 0 0 0 0 
0 0 0 0 0 0 0 0 0 
0 0 0 0 0 0 0 0 0 
0 0 0 0 0 0 0 0 0 
0 0 0 0 0 0 0 0 0 
0 0 0 0 0 0 0 0 0 
0 0 0 0 0 0 0 0 0 
0 0 0 0 0 0 0 0 0 
0 0 0 0 0 0 0 0 0 
0 0 0 0 0 0 0 0 0 
0 0 0 0 0 0 0 0 0 
0 0 0 0 0 0 0 0 0 
0 0 0 0 0 0 0 0 0 
0 0 0 0 0 0 0 0 0 
0 0 0 0 0 0 0 0 0 
0 0 0 0 0 0 0 0 0 
0 0 0 0 0 0 0 0 0 
0 0 0 0 0 0 0 0 0 
0 0 0 0 0 0 0 0 0 
0 0 0 0 0 0 0 0 0 
0 0 0 0 0 0 0 0 0 
0 0 0 0 0 0 0 0 0 
0 0 0 0 0 0 0 0 0 
0 0 0 0 0 0 0 0 0 
0 0 0 0 0 0 0 0 0 
0 0 0 0 0 0 0 0 0 
0 0 0 0 0 0 0 0 0 
0 0 0 0 0 0 0 0 0 
0 0 0 0 0 0 0 0 0 
0 0 0 0 0 0 0 0 0 
0 0 0 0 0 0 0 0 0 
0 0 0 0 0 0 0 0 0 
0 0 0 0 0 0 0 0 0 
0 0 0 0 0 0 0 0 0 
0 0 0 0 0 0 0 0 0 
0 0 0 0 0 0 0 0 0 
0 0 0 0 0 0 0 0 0 
0 0 0 0 0 0 0 0 0 
0 0 0 0 0 0 0 0 0 
0 0 0 0 0 0 0 0 0 
0 0 0 0 0 0 0 0 0 
0 0 0 0 0 0 0 0 0 
0 0 0 0 0 0 0 0 0 
0 0 0 0 0 0 0 0 0 
0 0 0 0 0 0 0 0 0 
0 0 0 0 0 0 0 0 0 
0 0 0 0 0 0 0 0 0 
0 0 0 0 0 0 0 0 0 
0 0 0 0 0 0 0 0 0 
0 0 0 0 0 0 0 0 0 
0 0 0 0 0 0 0 0 0 
0 0 0 0 0 0 0 0 0 
0 0 0 0 0 0 0 0 0 
0 0 0 0 0 0 0 0 0 
0 0 0 0 0 0 0 0 0 
0 0 0 0 0 0 0 0 0 
0 0 0 0 0 0 0 0 0 
0 0 0 0 0 0 0 0 0 
0 0 0 0 0 0 0 0 0 
0 0 0 0 0 0 0 0 0 
0 0 0 0 0 0 0 0 0 
0 0 0 0 0 0 0 0 0 
0 0 0 0 0 0 0 0 0 
0 0 0 0 0 0 0 0 0 
0 0 0 0 0 0 0 0 0 
0 0 0 0 0 0 0 0 0 
0 0 0 0 0 0 0 0 0 
0 0 0 0 0 0 0 0 0 
0 0 0 0 0 0 0 0 0 
0 0 0 0 0 0 0 0 0 
0 0 0 0 0 0 0 0 0 
0 0 0 0 0 0 0 0 0 
0 0 0 0 0 0 0 0 0 
0 0 0 0 0 0 0 0 0 
0 0 0 0 0 0 0 0 0 
0 0 0 0 0 0 0 0 0 
0 0 0 0 0 0 0 0 0 
0 0 0 0 0 0 0 0 0 
0 0 0 0 0 0 0 0 0 
0 0 0 0 0 0 0 0 0 
0 0 0 0 0 0 0 0 0 
0 0 0 0 0 0 0 0 0 
0 0 0 0 0 0 0 0 0 
0 0 0 0 0 0 0 0 0 
0 0 0 0 0 0 0 0 0 
0 0 0 0 0 0 0 0 0 
0 0 0 0 0 0 0 0 0 
0 0 0 0 0 0 0 0 0 
0 0 0 0 0 0 0 0 0 
0 0 0 0 0 0 0 0 0 
0 0 0 0 0 0 0 0 0 
0 0 0 0 0 0 0 0 0 
0 0 0 0 0 0 0 0 0 
0 0 0 0 0 0 0 0 0 
0 0 0 0 0 0 0 0 0 
0 0 0 0 0 0 0 0 0 
0 0 0 0 0 0 0 0 0 
0 0 0 0 0 0 0 0 0 
0 0 0 0 0 0 0 0 0 
0 0 0 0 0 0 0 0 0 
0 0 0 0 0 0 0 0 0 
0 0 0 0 0 0 0 0 0 
0 0 0 0 0 0 0 0 0 
0 0 0 0 0 0 0 0 0 
0 0 0 0 0 0 0 0 0 
0 0 0 0 0 0 0 0 0 
0 0 0 0 0 0 0 0 0 
0 0 0 0 0 0 0 0 0 
0 0 0 0 0 0 0 0 0 
0 0 0 0 0 0 0 0 0 
0 0 0 0 0 0 0 0 0 
0 0 0 0 0 0 0 0 0 
0 0 0 0 0 0 0 0 0 
0 0 0 0 0 0 0 0 0 
0 0 0 0 0 0 0 0 0 
0 0 0 0 0 0 0 0 0 
0 0 0 0 0 0 0 0 0 
0 0 0 0 0 0 0 0 0 
0 0 0 0 0 0 0 0 0 
0 0 0 0 0 0 0 0 0 
0 0 0 0 0 0 0 0 0 
0 0 0 0 0 0 0 0 0 
0 0 0 0 0 0 0 0 0 
0 0 0 0 0 0 0 0 0 
0 0 0 0 0 0 0 0 0 
0 0 0 0 0 0 0 0 0 
0 0 0 0 0 0 0 0 0 
0 0 0 0 0 0 0 0 0 
0 0 0 0 0 0 0 0 0 
0 0 0 0 0 0 0 0 0 
0 0 0 0 0 0 0 0 0 
0 0 0 0 0 0 0 0 0 
0 0 0 0 0 0 0 0 0 
0 0 0 0 0 0 0 0 0 
0 0 0 0 0 0 0 0 0 
0 0 0 0 0 0 0 0 0 
0 0 0 0 0 0 0 0 0 
0 0 0 0 0 0 0 0 0 
0 0 0 0 0 0 0 0 0 
0 0 0 0 0 0 0 0 0 
0 0 0 0 0 0 0 0 0 
0 0 0 0 0 0 0 0 0 
0 0 0 0 0 0 0 0 0 
0 0 0 0 0 0 0 0 0 
0 0 0 0 0 0 0 0 0 
0 0 0 0 0 0 0 0 0 
0 0 0 0 0 0 0 0 0 
0 0 0 0 0 0 0 0 0 
0 0 0 0 0 0 0 0 0 
0 0 0 0 0 0 0 0 0 
0 0 0 0 0 0 0 0 0 
0 0 0 0 0 0 0 0 0 
0 0 0 0 0 0 0 0 0 
0 0 0 0 0 0 0 0 0 
0 0 0 0 0 0 0 0 0 
0 0 0 0 0 0 0 0 0 
0 0 0 0 0 0 0 0 0 
0 0 0 0 0 0 0 0 0 
0 0 0 0 0 0 0 0 0 
0 0 0 0 0 0 0 0 0 
0 0 0 0 0 0 0 0 0 
0 0 0 0 0 0 0 0 0 
0 0 0 0 0 0 0 0 0 
0 0 0 0 0 0 0 0 0 
0 0 0 0 0 0 0 0 0 
0 0 0 0 0 0 0 0 0 
0 0 0 0 0 0 0 0 0 
0 0 0 0 0 0 0 0 0 
0 0 0 0 0 0 0 0 0 
0 0 0 0 0 0 0 0 0 
0 0 0 0 0 0 0 0 0 
0 0 0 0 0 0 0 0 0 
0 0 0 0 0 0 0 0 0 
0 0 0 0 0 0 0 0 0 
0 0 0 0 0 0 0 0 0 
0 0 0 0 0 0 0 0 0 
0 0 0 0 0 0 0 0 0 
0 0 0 0 0 0 0 0 0 
0 0 0 0 0 0 0 0 0 
0 0 0 0 0 0 0 0 0 
0 0 0 0 0 0 0 0 0 
0 0 0 0 0 0 0 0 0 
0 0 0 0 0 0 0 0 0 
0 0 0 0 0 0 0 0 0 
0 0 0 0 0 0 0 0 0 
0 0 0 0 0 0 0 0 0 
0 0 0 0 0 0 0 0 0 
0 0 0 0 0 0 0 0 0 
0 0 0 0 0 0 0 0 0 
0 0 0 0 0 0 0 0 0 
0 0 0 0 0 0 0 0 0 
0 0 0 0 0 0 0 0 0 
0 0 0 0 0 0 0 0 0 
0 0 0 0 0 0 0 0 0 
0 0 0 0 0 0 0 0 0 
0 0 0 0 0 0 0 0 0 
0 0 0 0 0 0 0 0 0 
0 0 0 0 0 0 0 0 0 
0 0 0 0 0 0 0 0 0 
0 0 0 0 0 0 0 0 0 
0 0 0 0 0 0 0 0 0 
0 0 0 0 0 0 0 0 0 
0 0 0 0 0 0 0 0 0 
0 0 0 0 0 0 0 0 0 
0 0 0 0 0 0 0 0 0 
0 0 0 0 0 0 0 0 0 
0 0 0 0 0 0 0 0 0 
0 0 0 0 0 0 0 0 0 
0 0 0 0 0 0 0 0 0 
0 0 0 0 0 0 0 0 0 
0 0 0 0 0 0 0 0 0 
0 0 0 0 0 0 0 0 0 
0 0 0 0 0 0 0 0 0 
0 0 0 0 0 0 0 0 0 
0 0 0 0 0 0 0 0 0 
0 0 0 0 0 0 0 0 0 
0 0 0 0 0 0 0 0 0 
0 0 0 0 0 0 0 0 0 
0 0 0 0 0 0 0 0 0 
0 0 0 0 0 0 0 0 0 
0 0 0 0 0 0 0 0 0 
0 0 0 0 0 0 0 0 0 
0 0 0 0 0 0 0 0 0 
0 0 0 0 0 0 0 0 0 
0 0 0 0 0 0 0 0 0 
0 0 0 0 0 0 0 0 0 
0 0 0 0 0 0 0 0 0 
0 0 0 0 0 0 0 0 0 
0 0 0 0 0 0 0 0 0 
0 0 0 0 0 0 0 0 0 
0 0 0 0 0 0 0 0 0 
0 0 0 0 0 0 0 0 0 
0 0 0 0 0 0 0 0 0 
0 0 0 0 0 0 0 0 0 
0 0 0 0 0 0 0 0 0 
0 0 0 0 0 0 0 0 0 
0 0 0 0 0 0 0 0 0 
0 0 0 0 0 0 0 0 0 
0 0 0 0 0 0 0 0 0 
0 0 0 0 0 0 0 0 0 
0 0 0 0 0 0 0 0 0 
0 0 0 0 0 0 0 0 0 
0 0 0 0 0 0 0 0 0 
0 0 0 0 0 0 0 0 0 
0 0 0 0 0 0 0 0 0 
0 0 0 0 0 0 0 0 0 
0 0 0 0 0 0 0 0 0 
0 0 0 0 0 0 0 0 0 
0 0 0 0 0 0 0 0 0 
0 0 0 0 0 0 0 0 0 
0 0 0 0 0 0 0 0 0 
0 0 0 0 0 0 0 0 0 
0 0 0 0 0 0 0 0 0 
0 0 0 0 0 0 0 0 0 
0 0 0 0 0 0 0 0 0 
0 0 0 0 0 0 0 0 0 
0 0 0 0 0 0 0 0 0 
0 0 0 0 0 0 0 0 0 
0 0 0 0 0 0 0 0 0 
0 0 0 0 0 0 0 0 0 
0 0 0 0 0 0 0 0 0 
0 0 0 0 0 0 0 0 0 
0 0 0 0 0 0 0 0 0 
0 0 0 0 0 0 0 0 0 
0 0 0 0 0 0 0 0 0 
0 0 0 0 0 0 0 0 0 
0 0 0 0 0 0 0 0 0 
0 0 0 0 0 0 0 0 0 
0 0 0 0 0 0 0 0 0 
0 0 0 0 0 0 0 0 0 
0 0 0 0 0 0 0 0 0 
0 0 0 0 0 0 0 0 0 
0 0 0 0 0 0 0 0 0 
0 0 0 0 0 0 0 0 0 
0 0 0 0 0 0 0 0 0 
0 0 0 0 0 0 0 0 0 
0 0 0 0 0 0 0 0 0 
0 0 0 0 0 0 0 0 0 
0 0 0 0 0 0 0 0 0 
0 0 0 0 0 0 0 0 0 
0 0 0 0 0 0 0 0 0 
0 0 0 0 0 0 0 0 0 
0 0 0 0 0 0 0 0 0 
0 0 0 0 0 0 0 0 0 
0 0 0 0 0 0 0 0 0 
0 0 0 0 0 0 0 0 0 
0 0 0 0 0 0 0 0 0 
0 0 0 0 0 0 0 0 0 
0 0 0 0 0 0 0 0 0 
0 0 0 0 0 0 0 0 0 
0 0 0 0 0 0 0 0 0 
0 0 0 0 0 0 0 0 0 
0 0 0 0 0 0 0 0 0 
0 0 0 0 0 0 0 0 0 
0 0 0 0 0 0 0 0 0 
0 0 0 0 0 0 0 0 0 
0 0 0 0 0 0 0 0 0 
0 0 0 0 0 0 0 0 0 
0 0 0 0 0 0 0 0 0 
0 0 0 0 0 0 0 0 0 
0 0 0 0 0 0 0 0 0 
0 0 0 0 0 0 0 0 0 
0 0 0 0 0 0 0 0 0 
0 0 0 0 0 0 0 0 0 
0 0 0 0 0 0 0 0 0 
0 0 0 0 0 0 0 0 0 
0 0 0 0 0 0 0 0 0 
0 0 0 0 0 0 0 0 0 
0 0 0 0 0 0 0 0 0 
0 0 0 0 0 0 0 0 0 
0 0 0 0 0 0 0 0 0 
0 0 0 0 0 0 0 0 0 
0 0 0 0 0 0 0 0 0 
0 0 0 0 0 0 0 0 0 
0 0 0 0 0 0 0 0 0 
0 0 0 0 0 0 0 0 0 
0 0 0 0 0 0 0 0 0 
0 0 0 0 0 0 0 0 0 
0 0 0 0 0 0 0 0 0 
0 0 0 0 0 0 0 0 0 
0 0 0 0 0 0 0 0 0 
0 0 0 0 0 0 0 0 0 
0 0 0 0 0 0 0 0 0 
0 0 0 0 0 0 0 0 0 
0 0 0 0 0 0 0 0 0 
0 0 0 0 0 0 0 0 0 
0 0 0 0 0 0 0 0 0 
0 0 0 0 0 0 0 0 0 
0 0 0 0 0 0 0 0 0 
0 0 0 0 0 0 0 0 0 
0 0 0 0 0 0 0 0 0 
0 0 0 0 0 0 0 0 0 
0 0 0 0 0 0 0 0 0 
0 0 0 0 0 0 0 0 0 
0 0 0 0 0 0 0 0 0 
0 0 0 0 0 0 0 0 0 
0 0 0 0 0 0 0 0 0 
0 0 0 0 0 0 0 0 0 
0 0 0 0 0 0 0 0 0 
0 0 0 0 0 0 0 0 0 
0 0 0 0 0 0 0 0 0 
0 0 0 0 0 0 0 0 0 
0 0 0 0 0 0 0 0 0 
0 0 0 0 0 0 0 0 0 
0 0 0 0 0 0 0 0 0 
0 0 0 0 0 0 0 0 0 
0 0 0 0 0 0 0 0 0 
0 0 0 0 0 0 0 0 0 
0 0 0 0 0 0 0 0 0 
0 0 0 0 0 0 0 0 0 
0 0 0 0 0 0 0 0 0 
0 0 0 0 0 0 0 0 0 
0 0 0 0 0 0 0 0 0 
0 0 0 0 0 0 0 0 0 
0 0 0 0 0 0 0 0 0 
0 0 0 0 0 0 0 0 0 
0 0 0 0 0 0 0 0 0 
0 0 0 0 0 0 0 0 0 
0 0 0 0 0 0 0 0 0 
0 0 0 0 0 0 0 0 0 
0 0 0 0 0 0 0 0 0 
0 0 0 0 0 0 0 0 0 
0 0 0 0 0 0 0 0 0 
0 0 0 0 0 0 0 0 0 
0 0 0 0 0 0 0 0 0 
0 0 0 0 0 0 0 0 0 
0 0 0 0 0 0 0 0 0 
0 0 0 0 0 0 0 0 0 
0 0 0 0 0 0 0 0 0 
0 0 0 0 0 0 0 0 0 
0 0 0 0 0 0 0 0 0 
0 0 0 0 0 0 0 0 0 
0 0 0 0 0 0 0 0 0 
0 0 0 0 0 0 0 0 0 
0 0 0 0 0 0 0 0 0 
0 0 0 0 0 0 0 0 0 
0 0 0 0 0 0 0 0 0 
0 0 0 0 0 0 0 0 0 
0 0 0 0 0 0 0 0 0 
0 0 0 0 0 0 0 0 0 
0 0 0 0 0 0 0 0 0 
0 0 0 0 0 0 0 0 0 
0 0 0 0 0 0 0 0 0 
0 0 0 0 0 0 0 0 0 
0 0 0 0 0 0 0 0 0 
0 0 0 0 0 0 0 0 0 
0 0 0 0 0 0 0 0 0 
0 0 0 0 0 0 0 0 0 
0 0 0 0 0 0 0 0 0 
0 0 0 0 0 0 0 0 0 
0 0 0 0 0 0 0 0 0 
0 0 0 0 0 0 0 0 0 
0 0 0 0 0 0 0 0 0 
0 0 0 0 0 0 0 0 0 
0 0 0 0 0 0 0 0 0 
0 0 0 0 0 0 0 0 0 
0 0 0 0 0 0 0 0 0 
0 0 0 0 0 0 0 0 0 
0 0 0 0 0 0 0 0 0 
0 0 0 0 0 0 0 0 0 
0 0 0 0 0 0 0 0 0 
0 0 0 0 0 0 0 0 0 
0 0 0 0 0 0 0 0 0 
0 0 0 0 0 0 0 0 0 
0 0 0 0 0 0 0 0 0 
0 0 0 0 0 0 0 0 0 
0 0 0 0 0 0 0 0 0 
0 0 0 0 0 0 0 0 0 
0 0 0 0 0 0 0 0 0 
0 0 0 0 0 0 0 0 0 
0 0 0 0 0 0 0 0 0 
0 0 0 0 0 0 0 0 0 
0 0 0 0 0 0 0 0 0 
0 0 0 0 0 0 0 0 0 
0 0 0 0 0 0 0 0 0 
0 0 0 0 0 0 0 0 0 
0 0 0 0 0 0 0 0 0 
0 0 0 0 0 0 0 0 0 
0 0 0 0 0 0 0 0 0 
0 0 0 0 0 0 0 0 0 
0 0 0 0 0 0 0 0 0 
0 0 0 0 0 0 0 0 0 
0 0 0 0 0 0 0 0 0 
0 0 0 0 0 0 0 0 0 
0 0 0 0 0 0 0 0 0 
0 0 0 0 0 0 0 0 0 
0 0 0 0 0 0 0 0 0 
0 0 0 0 0 0 0 0 0 
0 0 0 0 0 0 0 0 0 
0 0 0 0 0 0 0 0 0 
0 0 0 0 0 0 0 0 0 
0 0 0 0 0 0 0 0 0 
0 0 0 0 0 0 0 0 0 
0 0 0 0 0 0 0 0 0 
0 0 0 0 0 0 0 0 0 
0 0 0 0 0 0 0 0 0 
0 0 0 0 0 0 0 0 0 
0 0 0 0 0 0 0 0 0 
0 0 0 0 0 0 0 0 0 
0 0 0 0 0 0 0 0 0 
0 0 0 0 0 0 0 0 0 
0 0 0 0 0 0 0 0 0 
0 0 0 0 0 0 0 0 0 
0 0 0 0 0 0 0 0 0 
0 0 0 0 0 0 0 0 0 
0 0 0 0 0 0 0 0 0 
0 0 0 0 0 0 0 0 0 
0 0 0 0 0 0 0 0 0 
0 0 0 0 0 0 0 0 0 
0 0 0 0 0 0 0 0 0 
0 0 0 0 0 0 0 0 0 
0 0 0 0 0 0 0 0 0 
0 0 0 0 0 0 0 0 0 
0 0 0 0 0 0 0 0 0 
0 0 0 0 0 0 0 0 0 
0 0 0 0 0 0 0 0 0 
0 0 0 0 0 0 0 0 0 
0 0 0 0 0 0 0 0 0 
0 0 0 0 0 0 0 0 0 
0 0 0 0 0 0 0 0 0 
0 0 0 0 0 0 0 0 0 
0 0 0 0 0 0 0 0 0 
0 0 0 0 0 0 0 0 0 
0 0 0 0 0 0 0 0 0 
0 0 0 0 0 0 0 0 0 
0 0 0 0 0 0 0 0 0 
0 0 0 0 0 0 0 0 0 
0 0 0 0 0 0 0 0 0 
0 0 0 0 0 0 0 0 0 
0 0 0 0 0 0 0 0 0 
0 0 0 0 0 0 0 0 0 
0 0 0 0 0 0 0 0 0 
0 0 0 0 0 0 0 0 0 
0 0 0 0 0 0 0 0 0 
0 0 0 0 0 0 0 0 0 
0 0 0 0 0 0 0 0 0 
0 0 0 0 0 0 0 0 0 
0 0 0 0 0 0 0 0 0 
0 0 0 0 0 0 0 0 0 
0 0 0 0 0 0 0 0 0 
0 0 0 0 0 0 0 0 0 
0 0 0 0 0 0 0 0 0 
0 0 0 0 0 0 0 0 0 
0 0 0 0 0 0 0 0 0 
0 0 0 0 0 0 0 0 0 
0 0 0 0 0 0 0 0 0 
0 0 0 0 0 0 0 0 0 
0 0 0 0 0 0 0 0 0 
0 0 0 0 0 0 0 0 0 
0 0 0 0 0 0 0 0 0 
0 0 0 0 0 0 0 0 0 
0 0 0 0 0 0 0 0 0 
0 0 0 0 0 0 0 0 0 
0 0 0 0 0 0 0 0 0 
0 0 0 0 0 0 0 0 0 
0 0 0 0 0 0 0 0 0 
0 0 0 0 0 0 0 0 0 
0 0 0 0 0 0 0 0 0 
0 0 0 0 0 0 0 0 0 
0 0 0 0 0 0 0 0 0 
0 0 0 0 0 0 0 0 0 
0 0 0 0 0 0 0 0 0 
0 0 0 0 0 0 0 0 0 
0 0 0 0 0 0 0 0 0 
0 0 0 0 0 0 0 0 0 
0 0 0 0 0 0 0 0 0 
0 0 0 0 0 0 0 0 0 
0 0 0 0 0 0 0 0 0 
0 0 0 0 0 0 0 0 0 
0 0 0 0 0 0 0 0 0 
0 0 0 0 0 0 0 0 0 
0 0 0 0 0 0 0 0 0 
0 0 0 0 0 0 0 0 0 
0 0 0 0 0 0 0 0 0 
0 0 0 0 0 0 0 0 0 
0 0 0 0 0 0 0 0 0 
0 0 0 0 0 0 0 0 0 
0 0 0 0 0 0 0 0 0 
0 0 0 0 0 0 0 0 0 
0 0 0 0 0 0 0 0 0 
0 0 0 0 0 0 0 0 0 
0 0 0 0 0 0 0 0 0 
0 0 0 0 0 0 0 0 0 
0 0 0 0 0 0 0 0 0 
0 0 0 0 0 0 0 0 0 
0 0 0 0 0 0 0 0 0 
0 0 0 0 0 0 0 0 0 
0 0 0 0 0 0 0 0 0 
0 0 0 0 0 0 0 0 0 
0 0 0 0 0 0 0 0 0 
0 0 0 0 0 0 0 0 0 
0 0 0 0 0 0 0 0 0 
0 0 0 0 0 0 0 0 0 
0 0 0 0 0 0 0 0 0 
0 0 0 0 0 0 0 0 0 
0 0 0 0 0 0 0 0 0 
0 0 0 0 0 0 0 0 0 
0 0 0 0 0 0 0 0 0 
0 0 0 0 0 0 0 0 0 
0 0 0 0 0 0 0 0 0 
0 0 0 0 0 0 0 0 0 
0 0 0 0 0 0 0 0 0 
0 0 0 0 0 0 0 0 0 
0 0 0 0 0 0 0 0 0 
0 0 0 0 0 0 0 0 0 
0 0 0 0 0 0 0 0 0 
0 0 0 0 0 0 0 0 0 
0 0 0 0 0 0 0 0 0 
0 0 0 0 0 0 0 0 0 
0 0 0 0 0 0 0 0 0 
0 0 0 0 0 0 0 0 0 
0 0 0 0 0 0 0 0 0 
0 0 0 0 0 0 0 0 0 
0 0 0 0 0 0 0 0 0 
0 0 0 0 0 0 0 0 0 
0 0 0 0 0 0 0 0 0 
0 0 0 0 0 0 0 0 0 
0 0 0 0 0 0 0 0 0 
0 0 0 0 0 0 0 0 0 
0 0 0 0 0 0 0 0 0 
0 0 0 0 0 0 0 0 0 
0 0 0 0 0 0 0 0 0 
0 0 0 0 0 0 0 0 0 
0 0 0 0 0 0 0 0 0 
0 0 0 0 0 0 0 0 0 
0 0 0 0 0 0 0 0 0 
0 0 0 0 0 0 0 0 0 
0 0 0 0 0 0 0 0 0 
0 0 0 0 0 0 0 0 0 
0 0 0 0 0 0 0 0 0 
0 0 0 0 0 0 0 0 0 
0 0 0 0 0 0 0 0 0 
0 0 0 0 0 0 0 0 0 
0 0 0 0 0 0 0 0 0 
0 0 0 0 0 0 0 0 0 
0 0 0 0 0 0 0 0 0 
0 0 0 0 0 0 0 0 0 
0 0 0 0 0 0 0 0 0 
0 0 0 0 0 0 0 0 0 
0 0 0 0 0 0 0 0 0 
0 0 0 0 0 0 0 0 0 
0 0 0 0 0 0 0 0 0 
0 0 0 0 0 0 0 0 0 
0 0 0 0 0 0 0 0 0 
0 0 0 0 0 0 0 0 0 
0 0 0 0 0 0 0 0 0 
0 0 0 0 0 0 0 0 0 
0 0 0 0 0 0 0 0 0 
0 0 0 0 0 0 0 0 0 
0 0 0 0 0 0 0 0 0 
0 0 0 0 0 0 0 0 0 
0 0 0 0 0 0 0 0 0 
0 0 0 0 0 0 0 0 0 
0 0 0 0 0 0 0 0 0 
0 0 0 0 0 0 0 0 0 
0 0 0 0 0 0 0 0 0 
0 0 0 0 0 0 0 0 0 
0 0 0 0 0 0 0 0 0 
0 0 0 0 0 0 0 0 0 
0 0 0 0 0 0 0 0 0 
0 0 0 0 0 0 0 0 0 
0 0 0 0 0 0 0 0 0 
0 0 0 0 0 0 0 0 0 
0 0 0 0 0 0 0 0 0 
0 0 0 0 0 0 0 0 0 
0 0 0 0 0 0 0 0 0 
0 0 0 0 0 0 0 0 0 
0 0 0 0 0 0 0 0 0 
0 0 0 0 0 0 0 0 0 
0 0 0 0 0 0 0 0 0 
0 0 0 0 0 0 0 0 0 
0 0 0 0 0 0 0 0 0 
0 0 0 0 0 0 0 0 0 
0 0 0 0 0 0 0 0 0 
0 0 0 0 0 0 0 0 0 
0 0 0 0 0 0 0 0 0 
0 0 0 0 0 0 0 0 0 
0 0 0 0 0 0 0 0 0 
0 0 0 0 0 0 0 0 0 
0 0 0 0 0 0 0 0 0 
0 0 0 0 0 0 0 0 0 
0 0 0 0 0 0 0 0 0 
0 0 0 0 0 0 0 0 0 
0 0 0 0 0 0 0 0 0 
0 0 0 0 0 0 0 0 0 
0 0 0 0 0 0 0 0 0 
0 0 0 0 0 0 0 0 0 
0 0 0 0 0 0 0 0 0 
0 0 0 0 0 0 0 0 0 
0 0 0 0 0 0 0 0 0 
0 0 0 0 0 0 0 0 0 
0 0 0 0 0 0 0 0 0 
0 0 0 0 0 0 0 0 0 
0 0 0 0 0 0 0 0 0 
0 0 0 0 0 0 0 0 0 
0 0 0 0 0 0 0 0 0 
0 0 0 0 0 0 0 0 0 
0 0 0 0 0 0 0 0 0 
0 0 0 0 0 0 0 0 0 
0 0 0 0 0 0 0 0 0 
0 0 0 0 0 0 0 0 0 
0 0 0 0 0 0 0 0 0 
0 0 0 0 0 0 0 0 0 
0 0 0 0 0 0 0 0 0 
0 0 0 0 0 0 0 0 0 
0 0 0 0 0 0 0 0 0 
0 0 0 0 0 0 0 0 0 
0 0 0 0 0 0 0 0 0 
0 0 0 0 0 0 0 0 0 
0 0 0 0 0 0 0 0 0 
0 0 0 0 0 0 0 0 0 
0 0 0 0 0 0 0 0 0 
0 0 0 0 0 0 0 0 0 
0 0 0 0 0 0 0 0 0 
0 0 0 0 0 0 0 0 0 
0 0 0 0 0 0 0 0 0 
0 0 0 0 0 0 0 0 0 
0 0 0 0 0 0 0 0 0 
0 0 0 0 0 0 0 0 0 
0 0 0 0 0 0 0 0 0 
0 0 0 0 0 0 0 0 0 
0 0 0 0 0 0 0 0 0 
0 0 0 0 0 0 0 0 0 
0 0 0 0 0 0 0 0 0 
0 0 0 0 0 0 0 0 0 
0 0 0 0 0 0 0 0 0 
0 0 0 0 0 0 0 0 0 
0 0 0 0 0 0 0 0 0 
0 0 0 0 0 0 0 0 0 
0 0 0 0 0 0 0 0 0 
0 0 0 0 0 0 0 0 0 
0 0 0 0 0 0 0 0 0 
0 0 0 0 0 0 0 0 0 
0 0 0 0 0 0 0 0 0 
0 0 0 0 0 0 0 0 0 
0 0 0 0 0 0 0 0 0 
0 0 0 0 0 0 0 0 0 
0 0 0 0 0 0 0 0 0 
0 0 0 0 0 0 0 0 0 
0 0 0 0 0 0 0 0 0 
0 0 0 0 0 0 0 0 0 
0 0 0 0 0 0 0 0 0 
0 0 0 0 0 0 0 0 0 
0 0 0 0 0 0 0 0 0 
0 0 0 0 0 0 0 0 0 
0 0 0 0 0 0 0 0 0 
0 0 0 0 0 0 0 0 0 
0 0 0 0 0 0 0 0 0 
0 0 0 0 0 0 0 0 0 
0 0 0 0 0 0 0 0 0 
0 0 0 0 0 0 0 0 0 
0 0 0 0 0 0 0 0 0 
0 0 0 0 0 0 0 0 0 
0 0 0 0 0 0 0 0 0 
0 0 0 0 0 0 0 0 0 
0 0 0 0 0 0 0 0 0 
0 0 0 0 0 0 0 0 0 
0 0 0 0 0 0 0 0 0 
0 0 0 0 0 0 0 0 0 
0 0 0 0 0 0 0 0 0 
0 0 0 0 0 0 0 0 0 
0 0 0 0 0 0 0 0 0 
0 0 0 0 0 0 0 0 0 
0 0 0 0 0 0 0 0 0 
0 0 0 0 0 0 0 0 0 
0 0 0 0 0 0 0 0 0 
0 0 0 0 0 0 0 0 0 
0 0 0 0 0 0 0 0 0 
0 0 0 0 0 0 0 0 0 
0 0 0 0 0 0 0 0 0 
0 0 0 0 0 0 0 0 0 
0 0 0 0 0 0 0 0 0 
0 0 0 0 0 0 0 0 0 
0 0 0 0 0 0 0 0 0 
0 0 0 0 0 0 0 0 0 
0 0 0 0 0 0 0 0 0 
0 0 0 0 0 0 0 0 0 
0 0 0 0 0 0 0 0 0 
0 0 0 0 0 0 0 0 0 
0 0 0 0 0 0 0 0 0 
0 0 0 0 0 0 0 0 0 
0 0 0 0 0 0 0 0 0 
0 0 0 0 0 0 0 0 0 
0 0 0 0 0 0 0 0 0 
0 0 0 0 0 0 0 0 0 
0 0 0 0 0 0 0 0 0 
0 0 0 0 0 0 0 0 0 
0 0 0 0 0 0 0 0 0 
0 0 0 0 0 0 0 0 0 
0 0 0 0 0 0 0 0 0 
0 0 0 0 0 0 0 0 0 
0 0 0 0 0 0 0 0 0 
0 0 0 0 0 0 0 0 0 
0 0 0 0 0 0 0 0 0 
0 0 0 0 0 0 0 0 0 
0 0 0 0 0 0 0 0 0 
0 0 0 0 0 0 0 0 0 
0 0 0 0 0 0 0 0 0 
0 0 0 0 0 0 0 0 0 
0 0 0 0 0 0 0 0 0 
0 0 0 0 0 0 0 0 0 
0 0 0 0 0 0 0 0 0 
0 0 0 0 0 0 0 0 0 
0 0 0 0 0 0 0 0 0 
0 0 0 0 0 0 0 0 0 
0 0 0 0 0 0 0 0 0 
0 0 0 0 0 0 0 0 0 
0 0 0 0 0 0 0 0 0 
0 0 0 0 0 0 0 0 0 
0 0 0 0 0 0 0 0 0 
0 0 0 0 0 0 0 0 0 
0 0 0 0 0 0 0 0 0 
0 0 0 0 0 0 0 0 0 
0 0 0 0 0 0 0 0 0 
0 0 0 0 0 0 0 0 0 
0 0 0 0 0 0 0 0 0 
0 0 0 0 0 0 0 0 0 
0 0 0 0 0 0 0 0 0 
0 0 0 0 0 0 0 0 0 
0 0 0 0 0 0 0 0 0 
0 0 0 0 0 0 0 0 0 
0 0 0 0 0 0 0 0 0 
0 0 0 0 0 0 0 0 0 
0 0 0 0 0 0 0 0 0 
0 0 0 0 0 0 0 0 0 
0 0 0 0 0 0 0 0 0 
0 0 0 0 0 0 0 0 0 
0 0 0 0 0 0 0 0 0 
0 0 0 0 0 0 0 0 0 
0 0 0 0 0 0 0 0 0 
0 0 0 0 0 0 0 0 0 
0 0 0 0 0 0 0 0 0 
0 0 0 0 0 0 0 0 0 
0 0 0 0 0 0 0 0 0 
0 0 0 0 0 0 0 0 0 
0 0 0 0 0 0 0 0 0 
0 0 0 0 0 0 0 0 0 
0 0 0 0 0 0 0 0 0 
0 0 0 0 0 0 0 0 0 
0 0 0 0 0 0 0 0 0 
0 0 0 0 0 0 0 0 0 
0 0 0 0 0 0 0 0 0 
0 0 0 0 0 0 0 0 0 
0 0 0 0 0 0 0 0 0 
0 0 0 0 0 0 0 0 0 
0 0 0 0 0 0 0 0 0 
0 0 0 0 0 0 0 0 0 
0 0 0 0 0 0 0 0 0 
0 0 0 0 0 0 0 0 0 
0 0 0 0 0 0 0 0 0 
0 0 0 0 0 0 0 0 0 
0 0 0 0 0 0 0 0 0 
0 0 0 0 0 0 0 0 0 
0 0 0 0 0 0 0 0 0 
0 0 0 0 0 0 0 0 0 
0 0 0 0 0 0 0 0 0 
0 0 0 0 0 0 0 0 0 
0 0 0 0 0 0 0 0 0 
0 0 0 0 0 0 0 0 0 
0 0 0 0 0 0 0 0 0 
0 0 0 0 0 0 0 0 0 
0 0 0 0 0 0 0 0 0 
0 0 0 0 0 0 0 0 0 
0 0 0 0 0 0 0 0 0 
0 0 0 0 0 0 0 0 0 
0 0 0 0 0 0 0 0 0 
0 0 0 0 0 0 0 0 0 
0 0 0 0 0 0 0 0 0 
0 0 0 0 0 0 0 0 0 
0 0 0 0 0 0 0 0 0 
0 0 0 0 0 0 0 0 0 
0 0 0 0 0 0 0 0 0 
0 0 0 0 0 0 0 0 0 
0 0 0 0 0 0 0 0 0 
0 0 0 0 0 0 0 0 0 
0 0 0 0 0 0 0 0 0 
0 0 0 0 0 0 0 0 0 
0 0 0 0 0 0 0 0 0 
0 0 0 0 0 0 0 0 0 
0 0 0 0 0 0 0 0 0 
0 0 0 0 0 0 0 0 0 
0 0 0 0 0 0 0 0 0 
0 0 0 0 0 0 0 0 0 
0 0 0 0 0 0 0 0 0 
0 0 0 0 0 0 0 0 0 
0 0 0 0 0 0 0 0 0 
0 0 0 0 0 0 0 0 0 
0 0 0 0 0 0 0 0 0 
0 0 0 0 0 0 0 0 0 
0 0 0 0 0 0 0 0 0 
0 0 0 0 0 0 0 0 0 
0 0 0 0 0 0 0 0 0 
0 0 0 0 0 0 0 0 0 
0 0 0 0 0 0 0 0 0 
0 0 0 0 0 0 0 0 0 
0 0 0 0 0 0 0 0 0 
0 0 0 0 0 0 0 0 0 
0 0 0 0 0 0 0 0 0 
0 0 0 0 0 0 0 0 0 
0 0 0 0 0 0 0 0 0 
0 0 0 0 0 0 0 0 0 
0 0 0 0 0 0 0 0 0 
0 0 0 0 0 0 0 0 0 
0 0 0 0 0 0 0 0 0 
0 0 0 0 0 0 0 0 0 
0 0 0 0 0 0 0 0 0 
0 0 0 0 0 0 0 0 0 
0 0 0 0 0 0 0 0 0 
0 0 0 0 0 0 0 0 0 
0 0 0 0 0 0 0 0 0 
0 0 0 0 0 0 0 0 0 
0 0 0 0 0 0 0 0 0 
0 0 0 0 0 0 0 0 0 
0 0 0 0 0 0 0 0 0 
0 0 0 0 0 0 0 0 0 
0 0 0 0 0 0 0 0 0 
0 0 0 0 0 0 0 0 0 
0 0 0 0 0 0 0 0 0 
0 0 0 0 0 0 0 0 0 
0 0 0 0 0 0 0 0 0 
0 0 0 0 0 0 0 0 0 
0 0 0 0 0 0 0 0 0 
0 0 0 0 0 0 0 0 0 
0 0 0 0 0 0 0 0 0 
0 0 0 0 0 0 0 0 0 
0 0 0 0 0 0 0 0 0 
0 0 0 0 0 0 0 0 0 
0 0 0 0 0 0 0 0 0 
0 0 0 0 0 0 0 0 0 
0 0 0 0 0 0 0 0 0 
0 0 0 0 0 0 0 0 0 
0 0 0 0 0 0 0 0 0 
0 0 0 0 0 0 0 0 0 
0 0 0 0 0 0 0 0 0 
0 0 0 0 0 0 0 0 0 
0 0 0 0 0 0 0 0 0 
0 0 0 0 0 0 0 0 0 
0 0 0 0 0 0 0 0 0 
0 0 0 0 0 0 0 0 0 
0 0 0 0 0 0 0 0 0 
0 0 0 0 0 0 0 0 0 
0 0 0 0 0 0 0 0 0 
0 0 0 0 0 0 0 0 0 
0 0 0 0 0 0 0 0 0 
0 0 0 0 0 0 0 0 0 
0 0 0 0 0 0 0 0 0 
0 0 0 0 0 0 0 0 0 
0 0 0 0 0 0 0 0 0 
0 0 0 0 0 0 0 0 0 
0 0 0 0 0 0 0 0 0 
0 0 0 0 0 0 0 0 0 
0 0 0 0 0 0 0 0 0 
0 0 0 0 0 0 0 0 0 
0 0 0 0 0 0 0 0 0 
0 0 0 0 0 0 0 0 0 
0 0 0 0 0 0 0 0 0 
0 0 0 0 0 0 0 0 0 
0 0 0 0 0 0 0 0 0 
0 0 0 0 0 0 0 0 0 
0 0 0 0 0 0 0 0 0 
0 0 0 0 0 0 0 0 0 
0 0 0 0 0 0 0 0 0 
0 0 0 0 0 0 0 0 0 
0 0 0 0 0 0 0 0 0 
0 0 0 0 0 0 0 0 0 
0 0 0 0 0 0 0 0 0 
0 0 0 0 0 0 0 0 0 
0 0 0 0 0 0 0 0 0 
0 0 0 0 0 0 0 0 0 
0 0 0 0 0 0 0 0 0 
0 0 0 0 0 0 0 0 0 
0 0 0 0 0 0 0 0 0 
0 0 0 0 0 0 0 0 0 
0 0 0 0 0 0 0 0 0 
0 0 0 0 0 0 0 0 0 
0 0 0 0 0 0 0 0 0 
0 0 0 0 0 0 0 0 0 
0 0 0 0 0 0 0 0 0 
0 0 0 0 0 0 0 0 0 
0 0 0 0 0 0 0 0 0 
0 0 0 0 0 0 0 0 0 
0 0 0 0 0 0 0 0 0 
0 0 0 0 0 0 0 0 0 
0 0 0 0 0 0 0 0 0 
0 0 0 0 0 0 0 0 0 
0 0 0 0 0 0 0 0 0 
0 0 0 0 0 0 0 0 0 
0 0 0 0 0 0 0 0 0 
0 0 0 0 0 0 0 0 0 
0 0 0 0 0 0 0 0 0 
0 0 0 0 0 0 0 0 0 
0 0 0 0 0 0 0 0 0 
0 0 0 0 0 0 0 0 0 
0 0 0 0 0 0 0 0 0 
0 0 0 0 0 0 0 0 0 
0 0 0 0 0 0 0 0 0 
0 0 0 0 0 0 0 0 0 
0 0 0 0 0 0 0 0 0 
0 0 0 0 0 0 0 0 0 
0 0 0 0 0 0 0 0 0 
0 0 0 0 0 0 0 0 0 
0 0 0 0 0 0 0 0 0 
0 0 0 0 0 0 0 0 0 
0 0 0 0 0 0 0 0 0 
0 0 0 0 0 0 0 0 0 
0 0 0 0 0 0 0 0 0 
0 0 0 0 0 0 0 0 0 
0 0 0 0 0 0 0 0 0 
0 0 0 0 0 0 0 0 0 
0 0 0 0 0 0 0 0 0 
0 0 0 0 0 0 0 0 0 
0 0 0 0 0 0 0 0 0 
0 0 0 0 0 0 0 0 0 
0 0 0 0 0 0 0 0 0 
0 0 0 0 0 0 0 0 0 
0 0 0 0 0 0 0 0 0 
0 0 0 0 0 0 0 0 0 
0 0 0 0 0 0 0 0 0 
0 0 0 0 0 0 0 0 0 
0 0 0 0 0 0 0 0 0 
0 0 0 0 0 0 0 0 0 
0 0 0 0 0 0 0 0 0 
0 0 0 0 0 0 0 0 0 
0 0 0 0 0 0 0 0 0 
0 0 0 0 0 0 0 0 0 
0 0 0 0 0 0 0 0 0 
0 0 0 0 0 0 0 0 0 
0 0 0 0 0 0 0 0 0 
0 0 0 0 0 0 0 0 0 
0 0 0 0 0 0 0 0 0 
0 0 0 0 0 0 0 0 0 
0 0 0 0 0 0 0 0 0 
0 0 0 0 0 0 0 0 0 
0 0 0 0 0 0 0 0 0 
0 0 0 0 0 0 0 0 0 
0 0 0 0 0 0 0 0 0 
0 0 0 0 0 0 0 0 0 
0 0 0 0 0 0 0 0 0 
0 0 0 0 0 0 0 0 0 
0 0 0 0 0 0 0 0 0 
0 0 0 0 0 0 0 0 0 
0 0 0 0 0 0 0 0 0 
0 0 0 0 0 0 0 0 0 
0 0 0 0 0 0 0 0 0 
0 0 0 0 0 0 0 0 0 
0 0 0 0 0 0 0 0 0 
0 0 0 0 0 0 0 0 0 
0 0 0 0 0 0 0 0 0 
0 0 0 0 0 0 0 0 0 
0 0 0 0 0 0 0 0 0 
0 0 0 0 0 0 0 0 0 
0 0 0 0 0 0 0 0 0 
0 0 0 0 0 0 0 0 0 
0 0 0 0 0 0 0 0 0 
0 0 0 0 0 0 0 0 0 
0 0 0 0 0 0 0 0 0 
0 0 0 0 0 0 0 0 0 
0 0 0 0 0 0 0 0 0 
0 0 0 0 0 0 0 0 0 
0 0 0 0 0 0 0 0 0 
0 0 0 0 0 0 0 0 0 
0 0 0 0 0 0 0 0 0 
0 0 0 0 0 0 0 0 0 
0 0 0 0 0 0 0 0 0 
0 0 0 0 0 0 0 0 0 
0 0 0 0 0 0 0 0 0 
0 0 0 0 0 0 0 0 0 
0 0 0 0 0 0 0 0 0 
0 0 0 0 0 0 0 0 0 
0 0 0 0 0 0 0 0 0 
0 0 0 0 0 0 0 0 0 
0 0 0 0 0 0 0 0 0 
0 0 0 0 0 0 0 0 0 
0 0 0 0 0 0 0 0 0 
0 0 0 0 0 0 0 0 0 
0 0 0 
WallShearStress 1 7351 double
1.63596892 2.05720949 2.15439796 1.82013309 1.51892173 5.04216528 4.62158012 4.66181707 5.42110395 
5.13610458 1.53089118 1.82840788 2.01966619 1.19629288 1.32180738 2.29327416 1.60680389 2.10953212 
2.6363976 2.82748914 3.78988957 3.87200165 3.57389688 3.95530224 4.06233692 2.60092664 2.38169265 
2.44964433 2.5876801 2.73220348 4.09633923 3.32748556 3.57449865 5.61044121 4.70626307 4.72350931 
5.37644053 6.40206289 5.40857029 6.72232723 5.4075861 5.75286913 6.65660191 5.53176165 5.46461773 
5.53522587 5.12534952 1.59668851 1.19365084 1.44127345 1.5707227 1.20519507 3.12159228 3.5604701 
3.30544519 3.07219791 3.43522358 3.84247422 3.50471759 4.01997328 3.84261155 3.68018293 4.24819231 
4.54000521 4.34894896 4.00574827 3.73214388 1.42213261 1.35222983 1.39877081 1.38966584 1.3201344 
2.98979545 3.18291402 3.02292442 3.27716517 3.16779947 2.74313188 3.01251793 3.28981566 2.44001174 
2.67116022 3.12258577 3.88830352 3.49967575 2.97188759 2.61872721 2.63709712 2.88002181 2.52337885 
2.18217278 2.3831687 1.26861739 1.08677185 1.16488397 1.36181831 1.20896637 1.12640309 1.18203008 
1.05709624 1.10818207 1.23471224 1.91385913 2.31557894 2.04101372 1.93804538 2.44649768 3.26437497 
4.03258705 3.34263825 2.73097587 2.93477654 2.27054095 2.25841331 2.11564088 2.08469725 2.25644231 
2.03775001 1.79693091 2.21813583 0.439626306 0.427218169 0.371216923 0.652514398 0.758322477 3.06283402 
2.98262978 3.5249126 3.62000036 2.98518038 1.74142194 1.98604059 1.70911598 1.54703403 1.68254101 
1.78926945 1.78701317 1.88759089 1.85731721 1.7981236 5.14699221 5.1620822 4.72759151 4.64008522 
4.90443087 3.69367337 3.57281876 2.88745499 4.5557847 4.67019606 3.45677137 2.96896887 2.83380008 
4.19285774 3.77425742 2.56843019 2.58730507 2.66255665 2.7050209 2.53054595 6.34704161 5.89274073 
6.26185513 5.50086403 5.50283241 7.78087234 8.38835812 7.18627739 7.45058584 6.35258722 7.63834858 
6.8691535 7.76530981 8.3855381 2.12336683 1.94215 2.21381378 1.97897387 2.26814985 3.80621767 
3.84014177 3.74191999 3.72784114 3.44433236 3.8981905 3.89242101 3.71105814 4.00897121 3.93584275 
4.0478816 4.75450993 4.33151054 4.81361485 4.53271151 3.46309114 3.08275175 3.28658652 3.87801766 
3.72704244 3.9757247 4.26798534 2.84960628 3.00076485 2.91695976 2.99113703 2.89039612 2.66726398 
2.50376797 2.57198834 2.50123549 2.62744594 2.6098938 2.83991051 2.84309196 2.99400234 2.84321499 
4.99915314 4.07052279 3.84299707 6.31082296 4.55963898 3.45350909 3.78752995 3.73760915 3.65951347 
3.352422 2.41247916 2.67857122 2.75909829 5.82311583 5.9460907 5.78668451 5.7789197 6.20982981 
3.47052932 3.06148887 3.47751498 2.90669298 3.34419298 1.47266543 1.78472602 1.23677993 2.14188623 
1.74675322 1.80435634 1.70035541 1.33098114 2.57786441 2.2307632 3.90123987 3.07958198 4.4747529 
1.20804679 1.1343106 1.06711006 1.32366002 1.39716268 0.924872458 1.12970424 0.755775809 1.03384364 
1.98079884 2.1741972 1.93527818 2.0914433 2.26221848 4.62786722 4.47466898 4.2854929 4.63138819 
4.48500729 3.72270894 2.8856957 2.84721255 3.93730807 4.33213329 3.4906919 3.73059368 2.73899555 
3.07077146 7.30610037 5.47104549 7.58461142 4.53903627 6.78406954 3.22220755 3.36000204 2.96906257 
3.57636404 3.82899475 3.54460764 3.1187079 3.31926465 3.78065491 3.86922264 3.7590239 3.96510339 
4.13875294 4.53374481 4.68757439 3.84979725 3.6218431 3.74786663 4.0980587 3.6471777 3.58459783 
3.43504262 2.89748001 4.31401014 4.04163122 2.23912644 2.15389466 1.90402138 1.83111942 1.73256469 
2.42072201 2.52925515 2.13234806 2.23417807 4.04341936 3.882236 4.48394966 4.82247782 4.01869488 
4.45601892 4.11750841 4.04358149 3.80776596 4.06063557 1.47788692 1.04334652 1.09946012 2.01157165 
1.51195467 1.02524579 0.713678062 2.86917567 3.1122129 2.94426775 3.15177727 3.13036847 2.11362529 
1.76846778 1.89334667 2.00675321 2.40263367 1.42114055 1.3750205 1.29555225 1.68660629 1.55847192 
2.14119792 1.83374012 2.34845257 1.89211321 1.81502712 3.78743982 3.30092025 3.49558878 3.40319419 
2.92406535 2.19199634 2.4203763 2.4911406 2.06693363 2.22490788 2.47492266 2.735116 3.00745177 
3.26812339 3.62495208 2.65286016 2.42474222 2.3728919 2.93447709 2.70727754 2.1955235 2.18826222 
2.02128124 3.25352502 3.18341136 3.25455236 2.0354197 1.89879978 2.17778325 1.88483262 1.73454773 
1.59348178 1.94050395 1.67629695 1.77835345 1.63114619 3.27592468 3.19965506 3.25997448 3.0228672 
3.0793519 3.12933636 3.21625018 3.20895934 3.05594516 2.97110629 2.8123486 3.19204307 3.29641628 
3.28686976 3.36610699 3.96751666 4.32569027 3.93164945 3.84286594 4.44622374 3.38836718 3.01674962 
3.99726415 2.94723678 3.19327641 1.70611084 1.84672129 1.9558121 1.28832936 1.2621187 1.22812009 
1.3642813 1.33479989 1.19475138 1.40350962 0.93386519 1.43343854 1.63088727 0.820223212 0.775869071 
0.599140882 0.631359577 0.495289177 1.25879657 1.05777419 1.43770444 0.915150404 0.985215783 1.17051125 
1.43192685 2.02789235 1.17333317 2.1112597 2.45863652 1.93555808 2.37613201 2.78803396 2.34931087 
2.45436168 2.5971067 3.0231359 1.70665324 2.13615775 2.02711439 1.3978318 1.77699292 2.95772147 
2.1730926 3.49404502 2.40957332 1.8130945 2.08156037 1.63771152 2.39293194 2.9379828 2.62799263 
2.16207623 2.00784802 1.94518614 2.50385666 2.33556318 5.06234789 5.06317568 5.20214891 4.57613468 
4.61929941 4.96236801 4.20177746 3.68464971 4.47692013 3.19291973 3.66246319 3.29674387 3.33612752 
2.92815089 1.14449775 1.20277762 1.18680608 1.12984979 1.1860441 1.31818259 1.32822192 1.19859552 
1.22128785 1.3432771 1.74781477 1.62732065 2.25923681 2.40906334 1.87665176 2.74716592 2.51779056 
3.07934666 2.33848476 2.15463161 1.67456579 1.70629478 1.85461855 1.56256485 1.50647855 2.11797881 
1.92574489 2.02670789 1.90449309 2.13972855 3.59446883 3.25298405 3.50162983 3.21759462 2.7119 
3.24858713 3.16224742 3.44243908 3.0474689 2.91098905 2.78478169 2.96799302 2.92426944 2.65311742 
2.72001457 2.48509812 2.54833794 3.21479917 3.29521656 3.39884448 3.0868113 2.80999756 0.984196424 
0.780505717 0.848709762 0.920562506 1.09128904 5.1271224 5.15319777 5.02313614 5.18923044 5.09897804 
4.5749135 4.89159393 4.14611006 4.41966772 3.86582494 4.0914402 3.88968587 4.20879078 3.93870115 
4.15909147 4.11021996 4.30002165 3.94543076 4.68293524 4.96320391 4.6800561 4.52858305 4.29511356 
4.27099037 3.67061329 3.92242074 1.40624249 1.48576224 1.29419303 1.49455357 1.64748418 3.14392567 
3.53965545 3.80374455 2.5215199 2.83007455 4.20440817 4.12536669 4.56716347 4.19577122 4.19361448 
4.04025078 4.32319021 3.94132614 4.13604212 1.87248802 1.85323083 1.82470131 1.84453881 2.01832843 
9.7362299 8.92094517 11.3034601 8.50552273 7.71531296 3.03998208 3.00404739 3.28584862 2.84640527 
2.68180823 2.61451936 2.65392423 2.485852 2.80214524 2.79351425 3.13612795 3.0947752 2.90857124 
2.94193411 0.854487836 0.993866205 0.914630115 1.11380327 1.02890098 2.69660544 2.89623666 2.41774631 
1.18756926 1.04114985 1.17512298 1.31042576 1.23149729 1.55238569 1.78625369 1.6930095 1.16785991 
1.52594042 1.32872128 1.27865434 1.72184062 1.7231133 2.52846122 2.94267535 1.93363547 2.04352903 
2.19930291 1.84716165 1.85376835 1.92418134 2.30612206 1.9624306 1.67463112 1.4723376 2.92673445 
2.63381553 2.78460765 3.08294058 2.72093129 3.40986443 3.2459209 3.13594508 3.4181993 3.53629613 
2.45071626 2.6191051 2.20644546 3.15655541 2.63344431 2.03550363 1.9831543 1.49409568 2.11513805 
3.32286429 3.92671371 3.97518873 2.22306919 2.09709024 2.61454606 2.03925323 1.93464053 3.62202954 
4.40023375 3.45689321 4.07107973 3.66420126 3.8643012 3.47702599 3.61450338 3.1994102 3.53102207 
3.75507927 3.64449477 3.72301698 3.90596104 4.13410759 3.60140157 3.58042789 3.30285478 3.6626749 
3.66415429 3.33469987 3.36036587 3.37658644 3.29037094 3.31427145 3.40926862 3.30837488 3.4145503 
3.47765875 3.39338326 3.24929142 3.08985877 3.42228985 3.88385963 3.95054603 3.9139297 3.83009148 
3.78715038 3.71723819 3.80072784 3.63449621 3.46556139 3.21507311 3.79523039 3.49693704 3.66699505 
3.48981094 3.79035378 3.44953704 3.71273088 3.77295327 3.08213139 2.79476261 3.1447382 2.85427999 
3.14582396 3.74903655 3.67713666 3.57464099 3.89291334 3.86548042 2.91968989 2.55618691 3.17951512 
2.73646712 2.38203049 3.65584636 3.8788445 3.67162514 3.6903038 3.50511169 1.88269949 1.99372196 
2.0551672 2.0775485 1.77175581 2.20594406 2.38988304 3.19607878 2.88103914 2.99163127 3.43069863 
3.45726514 1.79236042 2.15251803 1.90067184 1.68467903 1.9433527 1.89159036 2.08169007 2.32799149 
1.81942129 3.62242103 4.12716484 3.72011018 3.6355288 3.90214014 2.59858203 2.29509926 2.50929236 
2.35777974 2.78393435 3.26687956 3.25360036 3.30720305 4.35070658 4.59399128 4.21844101 4.65501404 
5.03134346 3.50231957 3.33041525 3.44368482 3.61056447 3.37457776 1.19219267 1.22748804 1.24026608 
1.22723806 1.24320555 1.39823472 1.68670297 1.63180935 1.4561007 1.71173418 1.15313482 1.21688497 
1.15854871 1.14899659 1.25235736 1.1916033 1.17832947 1.22278011 1.27240074 1.20515919 2.3166914 
2.07130861 1.90592301 2.51137257 2.14485025 0.832306206 0.447760284 1.9268961 0.522868752 0.560212255 
1.99390936 1.05561864 2.55494404 1.21327806 1.84399819 5.68612576 3.72370982 5.12039948 6.86622238 
4.53955603 5.12639952 5.19647551 5.24308252 4.85574245 4.96643639 4.58470106 4.24179554 4.50110102 
4.13506126 3.79194427 3.06882191 3.23887134 3.60217738 0.969453871 1.19152606 1.18942785 0.750639141 
0.981768787 3.85656524 3.86551571 3.631567 3.54570603 3.6705482 3.80006337 3.48347354 4.11733055 
4.56181479 4.05368757 4.24178839 4.71120453 3.16438246 3.31669879 2.96508408 3.3427999 3.75351429 
12.4042397 11.8510246 11.8587589 11.2777872 10.1844244 8.96973324 8.77546024 11.2302713 5.36577129 
5.35535383 4.53480673 5.78061628 6.08614731 4.32614708 5.22734213 4.24083567 4.95187616 4.07746935 
2.13822389 2.16589355 2.33638072 2.23349929 2.12827611 2.0121541 1.87441039 1.78246224 2.37519836 
2.20370603 2.17347074 2.22361469 2.16435432 4.02485085 3.85527277 3.53616452 3.52347493 4.12328482 
3.23826027 2.57045031 2.76734924 3.67609692 2.80763197 3.24569774 3.10434055 3.61171913 3.41814137 
3.61557674 5.52508783 4.4128089 5.14641953 6.17537975 6.27735043 3.22890091 3.16479874 2.81145906 
3.46193409 3.54357743 2.19509006 2.27651954 1.89370382 2.57510614 2.66152573 2.23451376 1.92180622 
2.03206587 2.50257826 2.25813842 2.40525723 2.2966156 3.04145479 2.72630286 4.01841688 2.23463058 
2.07632065 2.28517604 2.0514791 1.90023243 2.95856977 3.02799654 2.5562489 2.56194878 3.5931673 
3.03170562 3.48438573 3.73547077 3.17443919 4.22404528 4.35379553 4.55492687 4.1043973 3.85129118 
3.79684472 3.80263448 4.06006241 3.17039609 3.39143419 2.58604741 2.60121465 2.70240402 2.93548441 
2.80834413 3.51074028 3.32915998 4.50819921 7.1507864 6.96880388 8.46804333 8.81735802 7.14729214 
3.74535394 2.98870111 2.98349071 3.97853923 4.77623129 4.51292801 3.33996725 4.32941484 3.48039889 
3.55561233 2.26469326 4.51605558 4.59229469 7.72388935 3.52130055 4.21437836 3.78627634 1.41088521 
1.73446608 1.55863333 4.97493982 5.02040195 5.21633101 5.66795492 4.98566198 5.62832117 5.40769386 
5.90181494 5.11661577 4.94689322 4.35936928 3.62031794 3.66051149 1.26226318 1.24354112 3.42490363 
3.62527514 3.66235852 2.55873752 2.77553964 2.32709408 0.595295012 0.768383801 0.819954216 0.662792981 
0.752576292 1.25178158 1.50845206 1.48462188 1.16592717 1.31181359 3.11864233 2.97674489 2.54693079 
3.65006018 3.64403749 0.855424345 1.11891675 0.897001207 0.750710309 0.697986603 3.621773 3.23392081 
3.3541286 3.42440224 3.12543249 0.777794957 0.912867725 0.732228875 0.857584953 1.06060743 0.701442301 
0.783910394 0.615023613 2.54162574 2.51404357 2.72453547 3.1633203 2.86851573 3.10695124 2.97376275 
3.15626502 3.10122347 3.14828897 2.81322455 2.95926428 0.510832191 0.669451594 0.480933011 0.764550567 
0.921727657 3.13443351 3.55674338 3.55162334 1.46555972 1.38577747 1.11074698 0.931849003 0.852266908 
2.19048691 2.14652491 1.83304024 3.50009084 4.03748751 3.54951453 6.78836298 7.04129362 7.03743696 
4.77559042 4.75255108 5.70832539 5.46402311 6.80398655 5.74080849 4.29727125 4.33169937 8.17842102 
3.23592973 2.65413475 3.15570641 2.59682202 4.0627861 3.92999077 3.13485599 3.89165115 3.76261449 
3.76821804 3.66603255 3.48558068 3.16348886 3.42599535 3.83603573 4.33778238 4.84830236 4.60058165 
4.16831875 3.8761611 4.65672779 2.12289023 1.84753203 1.96287191 2.3197248 2.37075281 2.53904748 
2.41710877 1.15722001 1.22029757 1.27792084 1.3618139 1.21327043 1.15670753 1.24666643 3.18774748 
3.38823485 2.99595809 2.8731029 3.15323043 3.62753725 3.57463479 3.08648562 3.70800304 3.6027894 
3.3862505 3.80081272 2.54219699 2.08870387 2.16452646 2.10830617 2.35634494 1.97992146 2.35387325 
2.15238714 2.03417659 1.25061607 1.19076121 1.26850486 0.935585856 0.809445977 1.64841187 1.33872688 
0.692907751 0.770571709 0.871658266 4.18681383 4.29244804 2.61207461 2.99715424 2.5600636 2.14662099 
2.46435022 2.22532916 2.9466033 2.11658025 2.33804965 1.91359949 1.80666435 1.99654031 2.38389158 
2.64571953 2.04557681 2.00851703 2.31199908 2.18661451 1.93579054 2.44308233 1.81516457 1.87313187 
1.88827813 1.80470836 1.80158436 1.94144154 1.98387289 2.04883432 2.35639119 2.74984288 2.2287302 
2.84417963 1.91055334 0.782767415 0.460250348 0.810317934 1.21274281 0.390078723 1.104002 0.664633811 
3.39309835 3.10259986 3.19443321 3.05123305 3.44121408 3.51147652 2.98702598 2.75517321 2.86431003 
3.35290027 2.53657293 2.60467768 2.81618452 5.58455849 5.00916195 5.37575054 5.49433136 4.91750145 
5.91366911 5.73791885 1.59307849 1.75478721 1.49272692 1.59037662 1.82645166 1.43766022 2.00635552 
3.8131876 3.15745974 3.43725467 3.65126252 4.23849964 3.98130417 4.25255632 3.75821805 3.60277009 
3.78608227 3.57833552 3.98585248 3.87327504 3.69445539 5.06781578 4.39362717 4.07690477 4.64454365 
5.47692633 5.21323204 5.56890249 4.88002014 4.85085201 4.55156612 5.19923592 4.59072733 5.1529808 
4.91257048 3.02983379 2.76655078 3.27017212 2.67922449 8.53449917 7.3957448 9.12325859 7.66643095 
6.85175085 1.33295333 1.32684159 1.38435495 1.27025616 1.31512785 1.25935888 1.38986051 1.32653892 
1.24382842 1.20929182 1.356583 1.47163785 1.32436156 1.38777721 1.38338041 1.3090241 1.24655998 
4.21678066 3.89417505 4.09009171 4.04224157 4.17260408 4.14440441 0.356655836 0.976135075 0.487722099 
0.113370299 0.788487375 0.781472981 0.474298745 1.21914852 1.68623495 1.73137057 1.21817958 0.917245448 
1.04665065 1.17344582 0.965014517 0.951388419 1.17014337 1.26866591 0.852979779 0.375802428 0.410366744 
0.423467904 0.390537173 0.397489101 0.635305882 0.530537546 0.578142107 0.757754087 0.936425149 0.720932603 
0.622572064 4.94938612 5.25454569 3.05349231 3.78638172 1.26235008 1.31898391 1.15485919 2.93892002 
3.00957704 3.16762996 3.01388431 2.77076149 3.04631829 3.08418107 2.64156747 2.79785895 2.54531074 
2.44031215 3.07786512 3.13260674 3.08606553 3.13934302 2.91984057 3.01997232 2.98293376 1.26338875 
1.65611291 1.59946871 0.972706676 1.35747826 0.972803891 1.24368989 0.526731133 0.657494664 0.628642499 
0.549038112 0.417995334 0.48261565 0.630452394 0.576078475 0.469810665 0.642067075 0.545924127 0.419880956 
0.656442642 0.707752287 2.83753943 3.01494789 3.14180255 2.63101745 2.65489888 4.75241804 5.64268351 
4.95369816 3.66285706 3.88899612 1.0418452 1.11792326 1.25664639 0.847011328 0.928085983 1.13284981 
0.944626033 5.14847565 5.70757914 5.40105534 4.85407829 5.56783199 2.56347442 2.6838026 2.69196701 
2.78566337 2.67215848 2.68808579 3.95953131 4.09550476 4.86264563 1.78380132 1.55129218 1.74292612 
1.79891753 1.76567852 1.60383463 2.25079012 2.82995319 2.28923702 2.22999978 2.68901849 1.8533591 
1.75927758 1.21435702 1.09777069 1.20356846 1.0913465 1.33506918 1.51884782 1.34866488 3.1846354 
2.83633327 3.41371894 2.81926703 3.53692675 3.70661902 2.67340994 2.27930069 2.29224992 2.74814916 
2.41965508 2.75200605 3.15581489 1.44586861 1.76244712 1.26548731 1.15119696 1.31954384 1.66541874 
1.97960591 1.69673085 1.51045787 2.23777866 1.99819171 1.35987604 2.3955543 0.977204263 1.97690976 
1.9024471 1.8785609 2.01221204 2.01689696 6.06348991 5.1539712 5.29169035 6.16594315 6.53037548 
5.58951092 5.98255396 1.43366063 1.6435653 1.86348987 1.63482261 1.26748645 1.25962424 1.59324193 
1.67003739 1.51815069 1.46907771 1.65749216 1.77830219 1.5257448 1.99764466 2.40852737 2.36038566 
1.96462452 2.17632866 1.67715943 1.84973013 1.2608428 1.21614146 1.14991379 1.41571271 1.42492652 
1.54601133 1.1600945 0.965370893 1.15801346 0.965468168 0.844506502 0.93499893 0.903969526 1.12509036 
0.95776844 0.689786613 0.567779899 1.69928527 2.04072118 1.74819255 1.4802537 1.35343301 1.25208902 
1.33231115 1.36455226 1.18772268 1.26195669 1.13280964 1.16084194 1.23943019 1.2156775 1.07842708 
1.0832051 1.1203438 0.948322475 0.895664573 0.971753716 0.995369971 0.907273054 1.01564384 0.858822227 
4.32865429 4.65755558 4.62656546 4.08891106 3.71234894 3.95635939 4.50888777 4.98176956 4.98471165 
4.70354366 4.60803413 5.26430035 5.23906803 4.86852884 4.22424603 4.59519863 3.96365762 4.5356698 
4.68750143 3.68392277 4.09783173 2.55235577 3.31382585 3.14819217 1.76871073 2.15862989 1.77311337 
1.52470028 1.38263071 2.01714134 2.29355121 1.62276602 1.98988426 1.94692516 2.14130402 1.82057798 
1.75792491 1.93850672 1.9393971 2.0743773 2.88045573 2.6003418 2.85742044 3.16327024 3.16133261 
3.13359451 2.84824014 2.59402251 2.9052515 3.17222428 3.26458168 3.32017827 1.24847066 1.4608438 
1.36066306 1.36782932 1.2085923 1.11369514 1.38160515 2.80005145 3.00881791 3.03768206 2.76698756 
2.49450922 2.78658533 2.57373476 3.28687 3.18106151 3.41081429 3.35191655 3.18429756 3.16607094 
3.20764852 3.25528884 3.58525825 3.10799718 3.26217747 3.62900209 3.85107994 3.01489115 3.77083397 
3.68791914 3.53677416 3.48003173 2.60183597 2.3842237 2.43940568 2.98466206 2.68826771 2.44205832 
2.80736399 2.06276321 2.09453821 2.32431102 2.32705951 1.88582397 2.01814008 2.23650193 2.92575336 
2.69365883 3.13337827 3.27840614 3.00355935 2.7430017 3.18395543 2.64699864 3.10998464 2.96943545 
2.31617188 2.62571359 2.33111644 3.55927157 3.61475444 3.71989131 0.987643957 1.02334023 1.04578173 
1.01620352 1.02107537 1.02952707 1.050982 1.08674467 1.3058455 1.18562317 0.937731326 0.937660396 
1.07334626 1.22155428 0.344078511 0.392949492 0.377746552 0.416956335 0.373573124 0.306474715 0.341425627 
2.01806879 1.88943744 1.81807792 2.06094503 2.14948988 2.09645987 1.90224731 1.88340127 1.70337212 
1.93825781 2.18445635 2.13024473 1.81615973 1.65789747 0.686569691 0.697178781 0.927811861 0.916306496 
0.51469183 0.665729284 0.490372568 3.31807876 2.8934474 3.49502182 2.87929964 4.02420521 3.20066094 
3.82168889 3.9165082 3.97227144 3.53760195 3.61511731 3.96647596 4.28608131 3.52827024 2.80707073 
3.29783154 3.44828343 2.30032253 2.26995111 2.96048141 2.73406744 1.93892086 2.31333971 2.05483866 
1.98868454 1.71589971 1.77260077 1.76746166 1.61743975 1.76320529 1.32556856 1.45363486 1.71969318 
1.42975068 8.25369072 6.21285295 7.73770332 9.59130478 8.69592285 9.29362011 6.67990828 3.67442155 
3.30567932 4.01207638 2.44459414 5.9683404 6.43815947 5.41748333 6.45828438 7.19860935 4.25797939 
4.37114668 4.21709633 4.24309349 4.29410887 4.05451155 4.14269018 4.76642036 5.02942371 4.63000917 
4.52222872 4.33892202 4.55862808 5.04890251 2.85475588 2.82832503 2.80736184 2.79272556 2.78109121 
2.73134112 2.69160676 0.764032483 0.843036652 0.616948128 0.571133852 1.00624073 3.33664846 3.28761959 
3.24095225 3.27772832 3.35534573 3.36974382 3.3341186 3.34392476 3.04157376 2.86130214 0.9615978 
0.96789974 0.963267505 0.967680097 1.00674105 1.14976394 6.28189707 10.6076317 3.82378626 4.83775616 
2.62539363 6.07323456 5.72512722 7.31156254 6.71930933 4.89444399 4.67910051 8.16773605 4.30187225 
5.1129961 4.96109152 3.40422511 4.27926397 4.1959815 3.53265786 2.54501891 2.87953377 3.22431636 
3.01068091 2.9444406 2.80934858 2.95868635 2.94215846 2.57988238 2.62836409 2.70575356 2.67040086 
1.33750749 1.37391043 1.19643688 1.56080019 1.17761135 1.40415013 1.51181662 7.58540583 7.06797361 
7.01614714 7.42223072 8.00675488 7.65919304 7.03925562 6.08072853 5.64427185 5.60750103 5.68243551 
5.96466494 6.03900242 5.40074968 2.51331377 2.92699051 2.07598138 2.44079089 2.88107514 2.31470394 
2.39557552 2.47502875 2.67033458 2.13113403 2.2978754 2.35004067 3.44058776 2.99509788 3.21696901 
3.88608122 3.51473737 3.13294435 3.7127049 6.69314289 6.16340446 6.2812748 6.43115711 7.22296 
7.68614006 6.66076899 3.48986363 2.61710119 2.75467658 4.18945599 4.70648432 4.04797506 3.62414217 
4.30319118 4.94662952 2.86048794 6.01385736 6.14813852 5.98836517 5.84830713 6.31443834 5.68748331 
9.22659397 8.43575478 7.5418644 10.7581701 9.0402441 2.09363842 2.317523 2.46581697 2.43049097 
1.99907899 1.75054073 1.96452272 2.55459905 2.73186827 2.62276196 2.58414364 2.24906278 2.31734586 
3.33106756 2.96019197 2.83839107 3.71900702 3.1418376 3.41355371 4.15968466 4.01020193 2.80270576 
2.62446761 2.35264111 2.74855494 2.73361921 2.65418601 2.88147879 2.54530287 2.80399323 2.60231733 
2.8693912 4.13526678 4.88811779 4.49232101 4.58005762 3.0543108 2.70646071 2.5832119 2.98466325 
3.91423702 3.44730997 4.43792629 3.9715116 4.41783619 3.99452829 1.88178706 2.12103319 1.67363465 
1.88791859 2.01143503 1.75024843 2.34813404 2.0149231 2.87056732 2.73103976 2.11680007 2.39315152 
1.20719254 1.31777751 1.33211184 1.2865541 1.20322192 0.967710316 1.05744398 3.52041626 2.74093413 
4.50771952 2.25561285 3.9921236 2.60697746 5.34795332 1.05035377 1.58411217 1.38043797 0.983023286 
0.796131074 0.667289019 2.53938127 2.4696207 2.36806226 2.46598172 2.21118712 2.47367263 2.30294943 
2.12808061 2.3647697 2.11935449 2.31962466 2.25958133 2.30144215 2.54549265 2.63930798 2.16002917 
2.35136175 2.10161114 1.97000194 2.1128664 2.17402411 2.41994309 2.01192546 1.85535514 1.84258759 
1.70754755 1.69458628 1.90508044 1.67904031 1.83834505 1.85273993 2.8111763 5.63859177 5.45803261 
4.09166813 2.95790696 2.18673468 2.34248281 1.32803071 1.35599172 1.26309741 1.41534209 1.48303318 
1.33629704 1.60269511 2.00302172 1.71397817 1.89547265 1.6753484 1.91843736 1.62399495 1.53767157 
2.88596725 2.41253376 2.82123399 2.93189716 3.27685857 2.97737002 2.78963065 2.58699679 2.19728374 
2.67384958 2.5578773 3.01500797 2.48407674 2.30318761 3.02430677 3.92980838 2.83314371 2.3994236 
3.39184046 4.32915163 2.10653663 2.18023634 2.41803885 1.97807801 2.67458725 1.98885512 2.13949466 
2.39032722 3.2431643 3.93697739 3.22376013 3.00302386 3.72593403 5.00793743 4.97054863 4.16608524 
5.50492001 4.72290421 1.83009672 2.21804285 2.05765605 2.64155006 2.25200152 2.44257045 1.89367723 
1.59498703 1.70750201 2.5363636 2.86537766 2.88100433 1.99436045 3.13329029 3.38008332 3.77049899 
4.04249573 3.43596005 2.81051326 3.48708248 6.71937132 5.57051945 5.4957943 6.30935621 6.70493746 
3.24113488 3.29633808 3.74582958 3.72471786 3.06938028 2.76964474 5.99843502 6.57538605 6.78762913 
6.43539953 7.73568869 7.18239403 5.58255816 6.11798048 5.43053102 6.36474752 6.43185902 5.24776316 
4.41377115 4.35440111 5.42523479 7.33804417 7.7676959 7.47617435 7.03941679 6.64208698 6.75707817 
6.34795475 6.89208031 6.32335186 5.90128231 5.94620705 6.54934835 6.47994757 5.57158089 5.37491179 
5.72034025 7.07282877 7.40498066 5.97463274 7.92779922 7.42315626 1.35018229 1.42916036 1.38022077 
1.27825725 1.32692683 1.40287387 1.26725101 1.67908728 2.08470511 2.09023619 1.59124279 1.71610928 
1.85121047 1.93764126 2.15565586 1.6338414 1.39648819 1.24020362 1.24819994 1.62092841 0.825824738 
1.79931438 1.38124681 0.720926285 0.488593727 0.592477798 0.784260273 1.56992602 1.78386545 1.21197343 
1.85071039 2.11362672 2.03411722 3.89834714 4.97724533 2.97768116 2.80481148 3.9016211 4.04081869 
1.30980825 1.11935461 1.97716773 1.50713336 1.91375685 1.41769326 1.68781841 2.10095096 2.01461744 
1.1400032 2.44804406 2.50636196 2.385674 2.44615936 2.46699452 2.51746678 2.6057744 2.52672935 
2.59444904 2.38933444 2.69369364 2.63311052 2.74877501 2.61786723 4.21278095 3.44421911 4.49208593 
4.88337088 5.42367125 2.37030005 2.188097 2.92834496 2.52437019 3.66993451 2.73184705 4.68332863 
5.51182508 4.51133299 5.2095747 3.95640421 5.3331604 5.58704853 5.55151367 5.21573877 5.40813398 
4.80626822 5.44364691 5.58667278 4.88209915 3.15130782 2.90437913 2.76446009 3.55949402 3.18215895 
4.65071297 3.09495354 3.17238283 2.95460916 2.97526526 3.15564632 2.92526269 3.28800106 2.12781787 
2.30893159 2.72805548 2.29562426 1.79413855 1.79442656 1.88314998 2.0866034 1.45962918 2.15084815 
2.3325026 1.69307673 3.21132588 2.88809013 3.18788815 3.66865921 3.46854758 2.93533373 2.14149356 
2.42742825 1.9118973 2.07156038 2.20730257 2.63197088 2.82174277 2.70324063 2.43850255 1.47929323 
1.40930331 1.50740361 1.49844849 1.40420139 1.57647622 1.38870728 1.5964967 1.47605729 1.14507914 
1.31727159 1.63413942 1.28099549 1.73432004 1.97595608 1.80847824 2.36545634 2.18343472 2.36852288 
2.27389526 2.48262262 2.31507421 2.61512995 1.98378897 2.09158421 1.38514304 1.33005595 1.53583503 
1.38227236 1.31267869 1.48545587 1.37006867 1.41754985 1.43577802 1.32931709 3.79812956 3.64530706 
2.87163186 3.97358751 3.81218958 5.57009029 4.53132963 2.94054866 2.74601936 7.87236929 6.63520813 
9.34310532 10.7290812 9.20248318 5.09432364 5.02964783 5.10922527 5.28976297 3.43758106 2.88587403 
3.56373405 3.43735743 2.90670252 4.01689434 4.53198051 6.74781513 7.45578098 8.21016121 6.20616531 
4.77290535 7.02566624 6.79962635 6.76605701 3.84593534 3.0113337 3.28439212 4.15683031 5.00452757 
4.77430487 5.07039452 4.83991766 5.13703299 10.6012754 9.35335541 11.7856445 4.53094959 4.49341059 
4.74839067 4.965487 2.96418667 3.41641355 2.51939178 3.28295135 4.44893694 5.84715843 7.31055403 
7.40958881 5.77161217 3.19118237 2.64992762 3.45501685 2.65474319 3.41354799 1.9598062 2.54469538 
1.65720725 2.14627337 1.72557116 1.39146483 1.60830057 1.86991918 2.21966672 2.10845041 1.64253151 
4.83779192 4.91398239 4.52675915 5.17916441 4.53953218 4.92893505 5.08834887 5.12225199 4.91499424 
5.01310158 5.18235636 4.76185513 5.24288464 3.70516992 3.74074054 3.48470974 3.98368573 4.75723457 
4.33933926 3.16827869 2.74424052 3.46074343 2.89480782 2.92771888 3.07942557 2.69826174 3.05442071 
2.60974097 4.15944052 4.15649939 3.89799309 3.86583877 4.10383511 4.4863534 3.53820682 3.94129705 
3.52126551 3.04732418 3.12537599 3.17592692 3.04013395 3.3191061 2.86625075 3.32426357 2.48869634 
2.65412378 3.47818303 3.66301537 3.42304468 3.31997061 3.34874868 0.856191933 0.930041254 0.938126206 
0.882880569 0.77941674 0.770295918 0.871890664 1.03563809 1.00512946 0.991913497 1.06533504 1.14113057 
1.15550435 1.21677601 1.12383163 1.17130387 1.33858752 1.29937708 1.12225032 0.975902021 1.13627458 
0.707119286 1.07773983 0.798936546 1.25863349 0.461268008 0.48711428 0.567345381 0.41691491 0.49023807 
0.548734486 0.534871578 0.46712786 0.603095889 1.90823114 2.1579175 2.17081761 1.94606173 1.71815753 
1.63342786 1.86503255 2.42257357 2.47878027 2.7576077 2.59951186 2.29967093 2.14144254 2.2136929 
1.97967327 2.38834858 2.66111946 2.24515319 2.56156921 2.83756733 2.44954228 2.70754051 3.04024196 
2.67624497 2.97545576 2.39072394 2.37160349 1.95838475 2.02831769 1.95160294 2.05646014 2.2094698 
2.24971366 2.04925299 2.1331532 2.44127488 2.23847103 2.05810642 2.27596855 1.78426874 1.48578918 
1.46979415 1.75151408 2.10860229 2.0907948 1.76802731 2.26482224 2.50249338 2.42733479 2.26831388 
2.29103398 2.37406421 2.09321094 2.28177762 1.87382066 2.45888281 1.83054054 2.39688492 2.13787746 
1.38312185 1.3114692 1.45974255 1.28146946 1.21408141 1.51655042 1.44152451 2.43544292 2.03777242 
2.61806893 2.44549227 1.21794748 1.10803282 1.43919659 1.21012616 2.46979284 2.43577051 2.55848789 
2.40253758 2.46896601 2.22553396 2.56382084 2.43737411 2.21650863 2.02849793 2.27418566 3.06374049 
3.59366965 3.51626682 2.81182957 2.64143801 2.76338434 3.61396074 3.39895654 3.86248255 3.16067338 
3.39954758 4.22556639 2.28250051 1.98791134 1.93239975 2.6817627 2.27550435 1.03819394 1.33766758 
1.16784811 0.779292643 1.01831484 0.866350114 1.29743862 3.81235528 4.26261902 4.11095715 5.11214352 
4.585186 5.67481184 6.26721144 5.83589649 4.79080153 4.67172098 5.3303895 4.545578 4.07319784 
5.55805063 2.06447959 1.54872334 1.80227721 2.62535644 2.32517719 2.40976143 1.82327425 1.09261703 
0.783970773 0.908628166 1.36006069 1.28213739 1.68328226 2.14392877 1.99001491 1.61272705 4.70728588 
4.80403519 4.37555408 4.12771702 4.08966875 4.86271048 3.56881762 4.88776684 5.42249203 5.84232569 
3.88151908 3.61280751 3.65223885 3.73781133 3.98315215 3.8919878 3.4533906 3.52220225 3.54512882 
3.72924638 3.11511707 2.85121655 2.9493804 3.30962682 3.26210523 3.3846674 3.2551353 3.02106404 
3.32167459 3.41170073 3.32156968 3.26533985 3.2098763 5.59728146 4.91819286 7.22777033 2.8909297 
4.41510677 3.64251328 4.43253183 2.40075254 1.26738179 3.28153014 1.14747608 0.979824424 1.16087174 
1.51430035 1.13890898 1.15094829 1.24460292 1.71365511 1.22276878 1.68643582 2.45975471 2.77892232 
2.09291625 1.83591068 2.56063676 2.46283293 1.33333075 1.50520217 2.0404861 1.1179291 1.11284447 
0.984925985 0.810120344 5.21377134 5.34394598 5.02215385 5.54579687 5.44448471 6.09577656 5.51059151 
6.22770834 6.89234638 7.05757236 6.03573084 5.97996473 7.25774622 5.20676708 5.23665047 4.96323204 
5.17586136 5.22801304 5.22529221 5.05183172 4.48864794 4.76683187 5.0733428 4.24093628 3.98381519 
4.30875444 4.70030642 4.05941868 4.07258606 4.08634996 3.80017304 3.80703115 4.23775244 4.33638287 
4.06108761 4.82487059 4.53183794 4.43909645 2.78769135 2.1926775 3.42329979 4.30713749 3.72368765 
3.95491123 3.3508265 4.24233389 5.33370113 4.88561153 3.16556406 3.31010461 2.20440388 0.969489813 
0.570955038 3.11733508 1.79295635 1.79437304 3.47431326 3.50086713 0.658193052 8.36220932 7.71412563 
8.66950321 8.24496841 4.59393358 4.36744165 4.70491695 4.96375895 5.42814732 6.11545038 5.78892612 
4.91264868 6.51680183 5.83691931 6.26995468 6.73195362 6.00656462 5.43497467 6.02394485 6.42207289 
5.16149282 5.06887007 5.76174927 4.55098343 4.5941186 4.97394657 5.85739517 6.21750832 6.04685783 
5.63697147 6.10170078 3.68167877 4.18062401 4.66211081 6.81890106 7.25348711 6.45330095 5.58868742 
6.1281848 6.70758724 7.45296907 7.32978153 5.4869175 3.7743454 3.96961212 3.65991235 3.61302066 
1.81771982 1.71927893 1.06913054 3.02248263 2.50957203 3.16292953 2.76139951 2.76012397 2.32960105 
2.21617842 2.67458534 4.02776241 3.07663608 3.88023758 3.31100893 3.55628777 3.18038464 4.84572268 
4.37587166 5.82508564 4.7857132 2.60460424 2.922719 2.15646744 2.35365176 2.28985691 2.58133435 
8.4680748 7.90513802 10.6888027 10.0609474 8.40054226 5.40966606 4.63976669 4.39951372 1.86404574 
6.73698997 5.62142658 5.70542622 0.850354433 0.737288535 0.982890427 0.672727466 0.65730232 0.894774199 
1.17731524 1.48204803 0.892836213 1.20847595 1.10915875 1.31352532 1.45244825 1.59633279 1.11777997 
1.03507829 1.53233588 1.56619608 1.727862 1.9530803 2.13393712 2.35208631 2.32049608 1.97606599 
2.34393668 2.64673996 2.19405961 2.84966588 2.00918579 3.04216981 3.25515079 2.86387682 3.53666949 
3.22670937 2.51916623 3.29793692 3.0322845 2.63016629 3.67893386 2.88594699 3.38458228 3.81838942 
2.65979457 2.55696368 2.40374374 2.9250145 2.78452277 1.54653668 1.51607275 1.64922917 1.31922293 
1.37598848 1.32143426 1.26371527 1.25927627 1.37732458 1.16413748 1.22457802 1.36193931 3.72454476 
3.28271985 3.46247506 3.56525731 3.81728697 3.84912133 3.62355089 3.39491177 3.67132401 4.3772378 
4.41173792 3.9814055 4.06587553 4.67652941 4.23156977 4.17605925 4.01445818 4.22499371 4.0147481 
3.74534512 3.88846087 3.37797475 4.25007296 3.12344837 2.73977637 2.59192181 2.43809795 2.84042192 
2.87070608 2.62929153 2.74990964 3.20105982 2.97411966 3.04045558 3.29637456 3.39341569 3.11929417 
2.49252582 3.19055748 2.73678398 3.41811752 3.46491313 3.43071747 3.40527248 3.30432987 3.39787364 
3.53244233 2.36168003 2.71787667 2.52915072 2.11317253 2.19769192 1.91600323 1.91256058 1.81493831 
1.50551009 1.66809738 2.37237167 6.87477684 6.57504511 7.56074476 7.05304813 7.92347097 3.41085553 
3.40656734 3.5078752 3.38930988 3.49996805 2.7945919 2.84883094 3.12782454 2.80405283 2.73620963 
2.99260664 2.43242216 2.46737671 2.77993083 2.48321939 2.43034244 2.83020711 3.23728824 3.02926278 
3.46291828 3.30634379 3.00347185 2.94451857 2.77831364 3.24286342 3.25987339 3.00865674 2.75702882 
2.60048723 2.75410771 3.1150887 2.51162314 2.36011291 3.08240628 4.34757662 4.14652205 4.52186537 
4.35915184 2.6566391 2.57264423 2.90581727 2.64220357 1.06607246 0.903599024 1.2301867 0.887276113 
0.781365275 1.17220807 1.37227261 0.737240911 0.637190104 0.511240363 1.02442372 0.623439848 0.794387817 
0.633678734 0.568133235 0.725489259 1.11459291 1.0046773 0.572171092 0.458243489 0.440235674 0.399394482 
0.535508394 0.3023718 0.428666204 0.367691219 0.685573399 0.835163295 0.535125077 0.664445221 0.35574463 
0.306497067 0.299018443 0.356163651 0.433672667 0.54928267 0.380787402 0.652643681 0.47820273 1.39479268 
1.4753617 1.71927369 1.17509341 1.39317286 1.12965822 1.69142008 2.11251855 2.31701016 1.85473633 
2.40297604 2.02055478 0.714045405 0.564830899 0.623381019 0.919905305 0.786086321 0.916538775 0.926061988 
0.74354279 0.930876911 1.00176036 1.16335523 0.439252466 0.489810348 0.372749567 2.57872725 2.81394339 
2.49138141 3.2730422 3.30589604 3.40824032 3.37290573 3.27637434 1.68968904 1.6017338 1.61234844 
1.95867848 2.19874978 2.15899777 2.33692598 2.30277538 2.23320508 2.03024602 1.80747581 1.87943363 
2.17680621 1.2590152 0.980009019 1.50908124 1.31585371 1.06812203 1.44219828 2.4666121 2.28062916 
2.17731214 2.40938544 2.62134743 2.64748526 2.57575274 2.85372949 2.95904422 3.00240421 2.94754004 
2.8687129 2.71271896 2.6577599 2.65310335 2.63298273 2.73757553 2.78103733 0.672534227 0.898368895 
0.794481635 0.682424724 0.600231171 0.439137548 0.536483228 0.804106712 0.873453796 0.705003262 0.801154435 
0.920437276 1.03226233 1.00527978 1.09256172 1.11828935 1.13351727 1.23618352 1.07603133 1.23128474 
1.04295564 1.03308296 0.99105078 1.1702919 1.21640074 1.09077311 0.933668554 0.784560323 0.859981716 
1.12523198 3.36494899 3.23528719 3.54699016 3.39657664 2.09708643 1.87344897 2.0566411 3.47555399 
3.27181005 3.3856585 3.49702024 2.71081829 2.81948543 2.56379938 2.96622109 3.0151782 2.99708891 
2.96637988 2.98420763 2.98456264 2.97566104 2.93001747 2.98842335 2.93720818 3.06097126 3.00790119 
3.41851354 3.35106468 3.73924661 3.08712482 3.19580603 3.80414796 3.27249289 2.59443736 2.62185383 
2.29465699 2.69445443 2.98092365 2.77804756 2.33721209 3.86483479 3.85794187 3.81753135 3.83683395 
3.62588978 3.68630505 3.82515407 3.40530348 2.85105681 3.37358737 3.64834476 2.18182206 2.02828836 
2.34126186 2.47465658 2.25322723 2.33724165 2.33418679 2.31154799 2.34787154 2.41201806 2.61838579 
2.72082329 2.53796291 3.05876875 3.2475059 3.29775167 3.02234745 2.79560947 2.49287748 2.1712997 
2.79764843 2.5022254 2.74778247 2.84655738 3.00799298 3.98096967 3.82549024 3.93024015 3.88277626 
3.87941885 3.90541697 3.76757669 3.66886258 3.8943584 3.78953934 3.63013744 3.4630959 3.45220232 
3.34094834 3.61702538 3.81989312 3.62010098 3.44002461 3.53131151 3.47042036 2.93151808 2.5458138 
2.83048677 3.07317591 3.47608829 3.70198774 3.62633443 3.70548987 3.43810892 2.61741376 3.14076519 
3.73113942 3.01917601 3.27249002 3.2351079 3.30192375 3.36813521 3.35569072 3.23453975 3.33057809 
3.55806828 3.73028326 3.48169589 3.80138516 3.44278193 3.44748425 3.33780479 3.37739348 3.54022861 
3.79229069 3.71209311 3.66233158 3.49390149 3.49952459 3.39863133 3.42528677 3.32759094 3.38835192 
3.27130008 3.14201355 3.47596359 3.43873453 2.9502151 2.75236392 3.38509321 3.14001012 3.63016176 
3.2555306 3.68911147 3.7672236 3.28635168 3.60408068 2.8733511 2.90521121 2.79661179 3.06483269 
3.08289337 3.30341291 2.96327615 2.96206689 3.02169967 3.13432074 2.9913044 2.91576648 3.95073724 
4.03264713 3.91812325 3.69808173 3.20958996 3.02866149 3.11047697 3.41153717 3.70213199 3.35464191 
3.38534117 3.52437735 3.27256203 3.52546072 3.42573261 3.82460189 3.48230743 3.71570206 3.96482444 
3.74948955 2.61888647 3.34019542 3.17637253 1.69676733 1.917925 1.78211403 1.37170184 1.56499612 
1.96315563 3.07753229 3.20831704 3.25558615 2.96380877 3.08832049 2.50176764 2.5721488 2.38412809 
2.53896904 2.46654177 2.57912612 2.46092892 2.141716 2.30562925 2.20868325 2.36689091 2.34175897 
2.57456899 2.44161367 2.75953937 2.48929286 2.66929984 3.02722573 3.08903813 3.32006383 3.14246678 
3.48578143 3.52491832 3.28773689 1.02655852 1.01761401 1.05389607 1.21946847 1.25716746 1.96645355 
1.81547797 1.62236464 2.34664774 2.21274853 1.71068466 1.49839628 1.66955698 1.87572289 2.07927728 
1.63767123 3.00208139 3.25356197 2.93831015 3.14720082 2.8900249 3.34003901 3.50995946 3.48754811 
3.48052502 3.41545725 3.22078538 3.50637531 3.48518205 3.22046494 3.65413642 3.36593533 3.34318328 
3.24602127 3.03169036 2.99069977 2.61150551 2.85041046 2.46334529 2.73915601 2.16043496 2.11905241 
2.00933981 2.30078125 2.08932877 1.86551094 1.53616357 1.71277845 1.49301171 2.52133036 2.04555893 
2.84144855 2.39942217 1.82787549 2.02225327 1.5898906 1.86626029 1.65322113 2.82657766 2.46611047 
2.52654958 3.0570631 1.6087873 1.89819586 1.49735296 1.99295294 1.34791279 2.09569597 1.71517217 
1.35697901 1.1197499 1.1928159 1.11579216 1.12960303 1.01211846 3.33480954 3.22976899 3.11049819 
3.14744759 3.0868783 3.47882032 2.90044641 2.89766526 2.53633285 3.02875161 2.93740177 2.64296556 
3.76707649 3.74687958 4.32833481 4.20489311 3.82177424 2.95943952 3.30011296 3.99575686 2.66099358 
3.28402472 4.56255817 4.64302778 4.84267378 4.58746672 5.14185524 5.01394939 4.74057436 4.43674994 
4.58999968 4.12187958 4.24833107 4.07636976 3.70978665 3.16392827 3.25556254 3.63310933 2.70620656 
2.59378386 2.95555496 2.88564205 2.87284374 3.06031013 2.94227028 2.3924377 3.21715665 2.48902535 
1.90835154 1.54625058 2.44557095 3.29150629 5.02842903 4.84509659 5.07790709 5.16076088 4.17135286 
3.53351235 4.4709363 4.65892792 4.87778234 3.98598385 3.47702551 3.98396826 3.54318523 4.46170616 
4.3411417 4.9754076 5.16785955 5.34072495 1.24639452 1.38627899 2.32693505 1.99523485 1.39038491 
3.00555062 4.18292284 4.29227591 4.5056653 3.77335 3.69901013 4.07979107 2.54837894 2.66662717 
2.58705115 1.93201077 2.9814446 3.82624125 6.40254736 5.15135527 6.47971582 7.13765335 7.1802249 
5.36833906 5.69446468 5.04548645 5.17556953 6.22109175 6.36272478 5.74825621 3.94411945 4.38746119 
3.52839756 3.49906445 4.79308319 4.91811991 5.10860825 1.07841802 1.07091165 1.16316664 1.0831815 
1.0340451 0.831702232 0.823484898 0.852380812 0.934732378 0.823734224 0.908183217 0.814432025 0.867113531 
0.82498908 0.799765766 0.814897895 0.827487171 1.08373773 1.1867826 0.968379915 1.07812953 1.26486921 
1.02106011 1.14270282 1.02515924 0.919228017 1.06413352 0.922271371 1.24403417 1.10906315 1.89732671 
1.85247016 2.05397677 2.04442954 1.94964778 0.940394223 0.989367187 1.07619476 1.05382299 0.886142433 
0.834082365 1.64495289 1.53848767 1.70872378 1.98567724 1.4317975 1.34177244 1.2429713 1.50632882 
1.24646127 1.05278289 1.14210904 3.01083541 2.96704602 2.89885473 2.87930679 2.57336855 2.56381845 
2.71526957 2.79051352 2.56027222 2.4300189 2.52176309 2.48700905 2.23720455 1.34164155 1.21941185 
1.70509851 1.45332289 1.45270693 1.78328514 2.29456615 1.74627161 1.42419791 2.32589316 2.73679042 
3.29741383 2.73569894 1.28501761 1.34869826 1.32513797 1.03068423 0.950018823 1.0099684 0.912057579 
1.01095855 0.909595847 3.57437277 3.32013798 4.15318441 3.09334874 2.99167299 4.29968786 3.52305794 
1.84486914 2.11714387 2.20420003 1.85637021 1.64264023 1.85744667 1.59247148 1.70084822 1.81152427 
1.50467229 1.37289643 1.43900454 1.42189431 1.3299911 1.32253695 1.43709207 0.898860574 1.01269138 
0.917219579 0.830561042 1.21867311 1.5314368 1.60410273 3.08644056 3.58909941 3.75417328 2.76503634 
2.72759199 3.09965849 1.95952713 1.95241678 2.15092468 2.08183837 2.35217786 2.81723285 2.40611672 
2.21609879 2.66825247 1.99446332 1.89095461 2.33243704 2.31503701 2.2964375 2.33557677 2.33454514 
2.51587987 2.15000606 2.72266126 2.71422505 2.58339596 2.79997706 2.48626804 2.40723443 2.6496973 
2.37185645 2.16769624 2.38404679 2.53963637 2.78783441 2.72225213 2.70822787 2.61228633 2.61563683 
2.6652174 2.70054436 2.72372508 2.38023639 2.395473 2.07178903 2.66196561 1.89876652 2.34058332 
2.91447592 3.50565267 2.64747238 2.13211751 3.2899394 3.93517184 3.93686056 4.45040751 3.97310925 
3.49699974 3.14005899 7.00322962 6.74163485 7.67080307 6.59091091 7.89964437 7.87837887 7.1620307 
7.13582993 8.44111252 8.89800644 7.75961828 6.4229784 6.49730825 7.97422791 5.44168472 4.33527374 
2.19713044 2.28267884 2.63034964 2.22854495 2.46852517 1.97709501 2.92759013 2.97999215 3.21711326 
2.43813658 2.61765766 3.44790912 3.33115125 3.64367008 3.5170877 3.81765652 5.30103922 2.13962817 
1.71382284 3.14314103 6.96642303 2.40004396 4.0746417 2.20137191 4.18980503 0.994040132 1.02316177 
2.30756235 0.358948767 0.572856009 0.886380672 0.673739433 0.105215669 2.73286033 2.64743757 2.86219382 
2.21312737 2.91977835 3.36489081 2.90240717 3.0764122 3.34751654 2.65262032 8.65372181 9.88783455 
9.64771557 7.58075476 9.63088703 10.8718691 9.19651508 1.04857481 1.15966368 1.32364047 1.50233555 
1.5432328 3.52443147 3.18669629 2.96676207 3.69649434 3.2869947 3.69235349 3.7958653 2.67730641 
2.68210769 3.328017 3.31651616 2.47845054 3.08262491 2.55315781 3.53560352 3.71668124 3.16522861 
2.30927181 1.83058441 2.17200613 1.8906939 3.85819387 3.52422237 4.19489527 3.75552082 3.97395468 
3.79385662 2.89139032 2.51521158 3.13400173 2.92169237 3.24532771 1.52203739 1.62544477 1.58778489 
1.37271357 1.36298764 1.48963368 1.47753859 1.46646476 1.3173188 1.33658504 1.56216824 1.51807737 
1.41808236 1.61578143 1.41100097 1.29124224 1.15926015 3.51316285 2.90570116 2.89508843 3.24399781 
3.87103915 3.98664713 4.17996073 3.65406919 5.80292511 5.01139545 5.79551649 6.36543083 5.75773382 
4.84037495 6.05655003 4.84194851 5.11760998 6.66513205 4.38341188 4.2299118 3.8769722 3.96295357 
4.39752722 4.65718794 4.30795383 4.17423296 5.22400093 4.66432571 3.44589329 2.72765183 2.04938006 
3.1466918 2.44596362 1.35779917 1.40162206 1.55955517 1.26676619 1.25754476 1.18311512 1.34350669 
1.28829229 1.22905469 2.49031925 2.80894208 2.67002821 2.55513406 2.35104132 2.47733474 2.51323795 
2.50208426 2.45093179 2.57430291 2.49030352 3.88957453 3.57162571 3.96269321 3.88386679 3.94234109 
3.38046408 3.99055839 4.01220417 3.94913268 3.83163214 3.84674907 5.59979486 5.58750629 5.81114006 
5.33877277 4.73716307 3.35477924 3.87467623 3.17401862 3.56018329 3.74440026 3.83757114 3.71003652 
3.84151316 3.94012284 3.64122224 3.14615107 3.86212778 5.62433529 5.71207476 5.61399603 5.05172205 
4.786273 5.07951736 5.12231064 4.77961874 4.67682505 5.0042882 4.72269964 4.95592928 5.42644644 
5.25579643 5.44271517 5.26168966 5.53315353 1.1697098 1.00246346 1.0801456 1.23772955 1.74893701 
1.8315562 2.07051158 1.87093425 1.57201481 1.55154371 2.05307841 2.16132188 2.45404792 1.83505452 
2.41772366 2.24119902 3.24247503 3.55348039 2.99123502 2.86885142 3.43069124 0.814161718 0.785127223 
0.890764356 0.804195344 0.736808419 2.45842147 2.51757026 2.45072508 2.66483498 2.74254298 1.79769754 
1.82288098 1.56824017 1.26439655 0.66917026 0.561260343 0.773992658 0.672748804 0.777642488 0.410262734 
0.519795358 0.237038776 0.669619143 0.316398829 0.699315608 0.985949576 1.14161921 0.799039781 0.903805315 
0.7528795 0.950641453 0.882455647 0.807802916 0.925258815 0.976234138 0.762985766 0.903646708 0.908506215 
1.94242465 2.15966249 1.85649395 1.69434631 1.74596786 1.49364257 1.48936331 1.28724337 2.91788626 
2.54820967 2.96882391 3.21022749 3.12635159 2.65123129 3.01224399 2.3711338 2.17986345 2.44556451 
2.05108809 1.89301908 2.85217333 2.80416965 3.04595971 2.61794281 2.71023679 2.59953022 2.92423892 
2.46577311 2.49795794 2.30790401 2.36047459 3.1913271 3.0814898 3.1774981 3.22534299 3.0338552 
3.04555297 2.99619269 3.11774874 3.02393985 3.11128545 3.21639156 3.38908386 3.26946878 3.26354766 
3.35848641 3.36116171 3.43035698 3.42707109 3.23441434 3.25459456 2.73829842 2.79440403 2.47774386 
2.98788238 2.80590487 3.46725178 3.46228147 2.1930294 2.25365949 3.84110522 3.80615401 3.69819403 
3.93194199 3.47227073 2.22621942 2.62546968 2.29174709 2.05421424 2.20517468 3.17589378 3.35586929 
2.74670649 3.03683639 2.60509634 2.87224507 2.56154227 3.61666083 3.47305727 3.70845628 2.15440869 
2.05987287 2.12276745 2.58378172 2.27323055 2.84984064 2.74743986 2.20710707 2.52302194 3.66159368 
3.19557023 3.95754671 4.21131706 3.50079465 4.38767147 1.32328939 1.57243907 1.24928308 0.933737755 
1.72869241 1.01665068 1.50127697 1.43348253 1.38677835 1.56812477 1.50839007 1.38765335 1.54637921 
1.41821241 1.47268009 1.13407218 1.14366412 1.88766801 1.95166934 2.18476772 1.9029603 1.74986005 
2.04776216 1.88142395 1.86728847 1.93961024 2.02027822 1.71745503 1.68690443 1.81259263 1.75957501 
1.35800624 1.85042834 2.17944217 1.44083142 1.58100641 1.31296587 1.3327527 1.53680885 1.58906245 
1.54603493 1.4673692 1.49135423 1.55679619 1.49817383 1.41936934 1.37397909 1.42708516 1.69244385 
1.84134531 1.21859038 1.11027491 0.78458637 1.76698792 1.63393092 1.00118208 0.979788363 0.843259215 
1.42041934 1.36635661 0.972662926 1.12256026 4.13590097 3.9402411 3.8425386 4.07760954 3.98130727 
3.78030086 3.99256134 0.753196716 0.79138422 0.682548165 0.839220345 1.01415873 1.08999228 0.760344625 
0.672649026 0.936267436 0.737097502 0.616791666 0.586643577 0.697604835 0.898541093 0.485043466 0.532759368 
0.809395134 1.39253759 1.13090062 0.425749034 0.517716348 3.25678396 3.42172694 2.93436337 3.41237569 
3.26682973 3.76997447 3.74035716 3.77506471 3.53560138 3.55923629 3.96344733 3.74291396 1.35576963 
1.63931203 1.82460046 1.53218889 1.46158779 1.62088382 1.41107047 1.5094341 1.65249491 2.63299632 
2.41014004 2.73027372 2.9835093 2.58392549 1.891783 1.60144377 1.58234107 1.84895992 2.25747371 
2.20934534 1.82321012 2.2082231 2.16003227 1.58007479 1.6255604 4.00777006 4.34591198 3.20370221 
4.76386213 4.79254436 3.93092418 4.44364929 4.34576988 4.15938902 4.17221928 4.45236683 2.40666533 
2.35267448 2.38648129 2.44510126 2.22567105 2.27545381 2.48078156 2.05686283 1.59909511 1.88555598 
1.5332309 2.50314045 2.86535478 2.85214376 2.97609329 2.90947366 2.93085647 2.22261739 2.0136168 
2.46237612 1.7806828 2.07304645 2.55129623 2.93291259 3.08071613 3.002069 2.91615891 2.87409472 
3.17778063 3.61942339 3.66950321 3.14313889 3.82055569 3.42819977 4.05775452 4.00775957 3.84220648 
3.66991758 3.82411909 3.85191083 2.95116305 3.11236858 2.38170981 2.28956366 2.7795608 4.54420757 
4.49277163 4.4681859 4.66479111 4.13252592 4.71108389 3.46531987 3.70793939 3.17743421 4.18874025 
2.69394279 1.99813998 2.13121605 1.9339689 2.08919024 2.36349177 2.03792644 2.00927758 1.96602452 
2.21432924 2.22713757 2.72095513 2.33114648 2.35982251 1.95206499 2.70120788 2.56137586 2.19285345 
2.27392983 1.96099412 1.92203712 2.60028195 2.72768116 2.32893419 2.793643 2.49610138 3.2365911 
4.40855742 3.92218971 3.68405008 4.19024563 4.60496521 4.88116646 3.49464464 3.23263049 3.66150069 
3.1767962 2.91781116 4.09727526 0.838588178 0.529927254 1.14530873 1.05225122 0.600494742 1.37864304 
1.40694106 1.73339653 1.1324892 0.696389616 0.691636145 0.87197578 0.648837924 0.835633039 0.858129978 
0.505663157 0.567835212 3.95409417 3.42929435 4.28370523 3.15680051 3.63655019 0.921013057 1.11310422 
1.3215003 0.832776785 2.64208412 2.4030931 2.48937869 2.83571696 2.72843432 0.485254407 0.421597809 
0.797418892 0.646997333 0.481517017 0.435910255 0.445596457 0.515146673 0.439935654 0.619025767 0.660776198 
0.586613119 0.553881824 0.994834065 0.848784864 0.624939263 2.07642746 1.7848587 2.21643901 2.41807365 
2.43118048 2.15716887 1.92765796 2.37521148 2.62806773 1.98575759 2.68348622 2.93150401 2.26866889 
2.65417695 1.62423646 1.41930747 1.68055058 1.26950932 1.84477758 1.92896116 2.49182653 2.24132323 
0.741783619 1.04347479 0.680765569 0.701710522 0.728933573 0.929442167 0.931141555 0.652815998 0.512075186 
0.39662233 0.488978386 1.88530993 1.91360831 2.45793343 1.57610226 1.91724145 2.84347963 2.8637526 
1.6796124 1.81679296 2.30104208 2.61582351 2.91273308 3.21739531 3.38854957 3.27412295 2.99735498 
2.56285429 3.54552841 3.90104628 3.56672812 3.65852737 3.34416652 0.799964845 0.928371549 0.825534105 
6.90677357 7.56579113 7.29612541 6.47274923 5.56948709 6.75505447 6.0341301 5.37209415 5.43708706 
6.65344 5.66457319 5.36491013 1.36165786 1.14354372 1.40000653 0.992047131 1.43451047 1.57385731 
1.90008175 2.0447402 2.09067321 2.07499909 1.57728457 2.26352549 4.45021248 3.70226765 4.11559248 
4.87455082 2.64972496 2.62394023 2.26279879 8.34176922 8.45503998 7.42227316 7.57241535 9.23851776 
8.01613617 7.62110233 9.48312855 6.05187607 5.54650259 6.76226854 2.71145725 3.22911739 2.4092195 
3.92990255 3.26327467 3.20960641 3.06410241 2.9417882 3.31671453 3.1615243 3.22090101 2.62846446 
2.73108339 2.68244767 2.91989779 2.83353806 3.27190375 2.50046158 1.93227208 1.98635828 1.61004472 
1.7227062 2.22988868 1.87476015 1.51816642 1.59449363 1.65392482 1.48844016 1.57423115 1.47075272 
3.7152884 3.23407483 4.04942703 3.55912352 1.43394792 1.47260118 1.43665445 1.45427573 1.38285446 
1.15338361 1.15902615 1.30045676 1.80920219 1.89790404 1.32493317 1.39611721 1.24259973 1.23572719 
1.41154444 1.44889152 1.42339027 1.44133627 1.5241226 1.46390104 1.46070564 3.05041242 2.74480844 
3.28007483 3.48476696 3.60137963 3.5244298 3.99072194 4.15310383 2.92996049 2.81973696 2.57183671 
1.88657939 2.00539422 1.88071752 1.73357451 4.36028576 4.26188421 5.0887866 4.62102175 3.37387323 
3.91780353 4.8761487 3.63921595 5.39803982 5.40398979 5.36273479 5.5881114 5.17634058 4.11440611 
4.44404316 5.04654026 3.71404552 3.41192698 5.02559614 4.33197165 4.2859211 5.32327032 4.9854846 
4.93622351 4.37057114 3.796592 3.36606884 1.40096521 1.40718722 1.47093344 1.56830728 1.44198835 
1.37545109 1.5275563 1.57688868 1.75619805 1.49470735 1.58595693 1.52339149 1.90868342 1.60440612 
1.70322394 2.08512092 1.79496014 2.28194356 2.10390592 1.42206371 1.54539633 1.36380148 1.28502786 
1.43071401 2.45635056 2.38833833 3.08952355 2.38794279 3.10371423 2.29751515 1.77529395 1.82307804 
2.40920639 2.96475029 2.58150792 2.24726367 2.00807858 2.44168377 2.30467057 2.45693827 3.61957145 
3.4309833 3.81982303 3.91278172 3.40583086 4.2580862 3.32667494 4.29081917 4.81669617 3.9505446 
4.97696686 3.5914731 5.63747454 3.15129542 2.97580266 2.8839426 3.19051528 3.29868007 3.83863115 
3.97337914 3.6175096 3.2656734 3.7671349 3.3283608 6.65552139 6.02844048 6.49024153 6.23860931 
6.19486427 6.39437485 4.43189478 4.62629318 5.05821323 3.83061075 3.99895406 4.24040461 3.40205216 
3.29908514 3.3524642 3.53544998 3.52840614 3.57043886 3.78979158 3.70030212 4.00997925 3.5435462 
4.38769913 3.51130366 3.41599298 3.47237992 3.55650377 3.64008307 3.37086678 4.14658833 4.77452707 
3.75932169 3.74449897 3.55288792 3.57189894 3.47387314 3.62128162 3.01810384 3.19035411 3.35126996 
3.28796244 2.8529942 2.97541523 2.64690351 2.75183845 3.16263556 2.7262702 3.41190386 3.27059603 
2.88881016 3.39485884 3.27177286 3.47997022 3.52539063 3.45449162 3.33759117 3.27442765 3.36943221 
3.53702021 3.08537674 3.0986886 2.76827717 2.73797536 3.32233381 3.45302796 3.4252131 3.34763598 
3.45337296 2.85307074 2.85224915 2.46360016 2.77930999 3.06372738 3.15003467 1.70608735 2.11711168 
1.60651839 1.88923979 2.69157743 2.48037267 2.24562311 2.708143 3.1678865 3.18244743 3.21470833 
3.09806347 2.70784092 2.52325583 2.01471519 2.2804637 3.01625514 3.20117497 4.16632032 4.64247036 
4.01307964 4.30448675 4.86067724 3.61788535 3.5852499 5.00680256 4.40521145 5.28949261 5.19659853 
4.70386124 3.24572539 3.30849981 3.08492184 2.69500971 1.67847407 2.08971214 2.00720263 1.23432314 
0.934289217 1.47326481 1.41855514 1.27307773 0.951266348 1.57437408 1.72819054 1.44454908 1.46772361 
1.58902156 1.38621271 1.57036209 1.36799061 1.28167701 1.50881195 1.3287679 1.06294441 1.17913771 
1.20767939 0.978328764 0.860242903 1.5162195 2.0685699 1.5804261 1.84070718 1.1169765 1.43724096 
1.11632371 0.888617933 0.789417744 0.671277702 1.15685725 0.780266285 2.33214569 2.37173223 2.05855656 
1.90879524 2.50694013 1.61351931 1.53557694 1.60436666 1.71503341 1.54144263 1.77288496 2.13624573 
2.16658616 1.92282557 1.91651487 2.13403726 1.69308686 1.81410289 1.56235325 1.7363373 0.5419994 
0.32369265 0.836995125 0.0762731582 0.167087957 0.331212938 0.19910486 1.13581395 1.32847106 1.4574126 
0.328446269 0.457294732 0.507392287 0.265311241 1.35756969 1.29187703 1.3445605 1.33618569 1.49561179 
1.46761179 1.28504503 1.29948235 1.39914703 1.31737888 1.40512621 1.50316226 1.46005738 1.39783967 
1.31825829 1.43569684 1.41737938 1.32948625 1.47945023 1.41825759 2.45213985 2.81794381 2.27151775 
1.98854077 2.44734836 2.0400064 1.83460093 1.66480505 2.0711987 2.42274475 1.91433394 2.39907289 
2.09828067 2.07624054 2.15971112 2.28392792 1.90217364 2.02318454 1.98151255 2.19706893 2.06157684 
1.39911628 0.816235006 0.747218013 1.21026957 0.695724308 1.03971052 1.73347414 1.37044978 1.98905075 
0.510839581 0.438237309 0.396416038 0.488047898 0.56350106 0.672093034 0.431341112 0.577851295 0.528912604 
0.47786355 0.371097445 3.31481624 2.68957496 4.31630707 2.45154691 4.36425877 5.42967463 1.83016837 
3.35927701 1.4040674 5.58956957 6.70530748 0.581709743 0.639177859 0.66865474 0.620041728 0.555265307 
0.762796879 0.977138698 0.759268582 1.91926265 1.80544591 1.75932896 1.87566805 1.80790305 2.13003469 
1.88193738 1.73733747 4.38254738 3.64518595 1.95646608 1.98161638 1.8804245 2.00697064 2.1829977 
2.32455635 2.8004415 2.47689271 2.03049111 2.02196097 2.12617612 2.18470049 2.76564908 3.27906442 
5.18263721 4.97027445 4.81014204 4.85819674 5.25567961 5.08112097 4.86362028 2.33729553 1.40062249 
1.44733703 1.41163182 1.59847176 1.25459814 1.51141918 1.64295363 1.36851597 1.34216273 1.62782216 
1.49031866 1.7929405 1.63334382 1.30317545 1.41444397 1.69119346 4.13659573 4.06865406 3.62264132 
3.58947444 3.61163878 3.65693545 3.58445001 2.75897169 3.16906452 3.09324217 2.61400151 2.44427681 
2.72426772 2.94912171 3.24143839 3.04938364 2.16873956 2.43978357 2.1170392 1.84425259 1.98036647 
2.48922205 1.17870426 1.20969415 1.07870948 3.74152565 3.53945732 4.21421671 3.97088242 3.49530959 
2.64185858 2.60366488 3.12868047 2.54818344 2.78909469 2.4881959 7.49819422 10.2472153 4.93142653 
6.84097147 4.62421656 6.90893745 9.07813263 6.63501263 4.15051079 4.53581142 7.79243803 9.74446201 
8.47193336 8.4190855 7.53139305 9.76373768 7.95944786 9.61069965 7.67124844 7.60406446 7.35702038 
7.60137653 7.27262545 7.45583057 7.3375411 9.33055782 10.4368429 9.82613277 8.74232101 9.29439068 
5.80631113 8.55080032 6.82800865 11.061552 10.026638 10.3954592 11.3772154 11.1811256 9.93598652 
10.7317123 10.3957005 9.08885193 9.68219662 9.80793667 9.38694572 9.26950932 9.50908756 8.68965816 
8.74096584 9.07755184 8.77821159 8.52095795 5.53701067 6.41372967 3.77665687 1.40704131 3.05756426 
9.38633919 9.76948357 9.16859627 9.84403992 6.22382069 4.52977753 4.90257502 5.8127737 7.02895164 
6.48467159 5.50089407 6.5917635 3.87417078 5.85757828 1.56428444 1.57043946 1.34256697 1.6507163 
1.37987494 1.80901194 3.56423569 3.08469415 1.87216425 2.20975709 1.96499467 3.08759928 2.20509815 
2.89603281 3.95646453 3.84546471 1.74310923 1.57701194 1.63790405 1.80407226 1.7723254 1.85793889 
1.7371881 1.98245251 2.2446444 2.06419158 1.90247738 3.26694393 3.35547066 3.4673996 3.42279816 
3.11339164 2.99511504 3.29943037 3.12364554 3.2767756 3.26509714 3.20261335 2.14775181 2.16521931 
2.21732616 1.98287094 1.81469333 1.84779418 2.37990069 2.1548295 2.15419269 2.08885407 4.31977749 
4.55354834 3.68498755 4.86232328 9.65199852 8.17424679 9.70843697 2.06465435 1.81369364 1.73109841 
1.66356945 1.45712519 1.49039721 1.58301592 1.94095981 2.5038619 2.06399727 1.86022031 1.76150358 
2.20972466 1.83931577 2.96853662 1.97541964 2.66131282 5.49076653 4.7681284 5.80915213 3.02111197 
1.07303357 0.947563946 1.48405111 1.98078823 1.82054543 2.13609433 2.27743888 1.58294213 2.29525399 
2.53370428 2.90753531 2.55590725 2.37700057 2.60672116 2.86884117 1.81822467 1.47865641 1.46098661 
2.21873546 2.11500883 2.98354363 2.52686071 3.36054206 3.87585163 3.75782514 3.89605021 3.05701661 
3.09281993 3.03775573 3.02099609 3.0437746 3.01724911 3.06371379 3.15213156 2.57741189 2.66776538 
2.55369163 2.71490645 2.74521422 2.55623722 2.59985995 2.84200788 3.03007174 2.67061234 2.47020602 
2.81629968 2.99541831 2.71943164 3.07450843 2.5144968 2.84313416 2.0506115 2.29269266 2.52109718 
2.66421223 3.37889075 3.5071876 3.89855433 4.21101189 3.69689441 3.08741379 3.09621215 4.58579254 
4.86287355 4.95365953 3.90502477 4.18758535 3.24575973 3.09248137 3.5664506 3.31593823 2.97646236 
3.5663321 3.86980724 3.45843768 3.76476312 3.25573826 4.36591959 2.89375019 2.74836659 2.74824452 
1.62508535 1.41564572 1.55303013 1.55496275 1.76964235 1.37777102 1.89283836 1.35537207 1.39500773 
1.20559847 1.35452616 2.40872765 0.762676775 3.41086531 2.12901402 5.23898411 6.86038733 7.42116165 
9.15898705 10.7891197 1.56635988 0.86553812 2.31597757 1.27910757 3.71940923 2.79038262 4.8242569 
3.0391438 2.57774591 2.38739634 2.45723152 2.66576838 2.91393542 3.03783965 6.24438047 5.63343525 
5.02036524 6.57678175 6.36639404 5.90522242 5.02353811 4.45145416 3.7165451 5.82558966 6.31507063 
5.76684856 6.15278101 5.59651852 5.34778214 5.21772337 6.0056572 5.09059763 5.22312117 3.5180645 
5.17186832 3.40691972 4.08391142 4.96169567 5.10057068 5.01061058 4.2901783 4.8273716 4.72199011 
3.02376223 2.76292157 3.15474916 2.93211174 2.55820704 3.32845259 2.11221957 2.45513773 2.14357448 
1.79431927 2.2638793 2.37918115 2.1769309 2.32027531 2.53079963 3.28199863 2.9410193 2.96895456 
3.17683125 2.41873837 2.79390359 2.72030449 2.37511492 3.74408317 3.73778033 3.49840641 3.35518646 
0.756742597 0.684085608 0.582061946 1.12731838 1.18643391 1.11079204 1.23139298 1.06468761 1.01924086 
1.11491501 1.04578125 2.69750452 2.79178572 3.14105487 2.53807521 3.01377058 2.49160361 1.8724134 
2.55858135 1.59475327 2.24203825 1.66593111 1.40865803 1.95739245 1.46277022 3.50254202 3.46877408 
3.56197071 3.5075438 3.54582357 3.62083387 3.86741114 3.71803689 3.31287742 1.65908611 0.759829462 
0.276138306 1.18555105 1.58734071 1.49652195 1.31202543 2.12294507 1.83500576 1.76037037 2.38966084 
2.38883138 4.52045107 7.81651115 8.64478588 3.78970957 3.50822282 4.33412123 6.01954126 5.93948221 
5.33209658 6.17473745 6.91084003 5.35159206 5.02251005 4.34234571 4.73607159 5.4581337 6.63708591 
6.00150967 5.77220774 5.17003345 5.29996967 5.03217173 4.76743221 4.4469943 4.6908493 5.57350016 
5.42341995 3.83305407 3.61470652 3.06936884 3.5581243 3.8591404 3.53408957 3.91226435 3.23284674 
3.42271924 3.66798592 3.47360277 7.99925375 8.8694725 8.57438469 7.62278175 1.95823205 2.19215584 
2.1455214 2.2498138 2.24701333 2.35656977 2.24757242 3.9536798 3.90167785 4.43109083 3.69077921 
3.62186813 4.35523462 2.11111808 2.39535332 2.32017636 1.49818051 1.87261188 2.43940187 2.09196186 
2.44133282 2.20690656 2.5330236 2.54168153 2.47053647 2.83177805 2.66411638 2.76716185 2.54064822 
2.62979698 2.95585632 5.55430031 4.80516052 5.59060431 5.9946804 6.01124191 2.51067162 2.46986914 
4.09791565 4.11360931 4.68659401 3.72203517 3.64871812 3.39365625 5.0349822 4.93089437 3.25232482 
2.63451171 3.04804754 2.50719714 2.54181647 2.42918277 2.45964742 2.369349 2.33788419 2.28025603 
2.66954875 3.31784248 4.30128479 4.60988045 4.72413492 4.50267267 4.51300287 4.25422668 4.23481703 
2.30758643 2.30943227 2.59570098 1.70611227 2.33879805 3.31563687 4.26979017 5.44521284 2.97783208 
3.692029 2.58162808 2.47654533 2.69630456 0.62402457 0.604915559 1.31027079 1.45031595 1.10550261 
1.01149642 1.5396744 1.36961794 1.31724072 1.36174941 1.12542105 0.922431111 0.66722858 1.07958078 
0.328435093 2.92896247 3.04536629 3.20823145 2.97095561 2.54633617 2.26576328 2.85504818 2.54920506 
3.02124143 1.51525891 1.91798735 2.46255684 2.33273697 3.26501417 2.87274241 4.36515474 4.5364089 
4.56160688 4.42966223 4.48991394 4.21198893 4.54081011 4.79799557 5.0162344 4.77294922 1.0267781 
1.05319643 0.988237381 0.994824231 6.51387072 5.89298677 6.64964294 4.49583054 4.14946413 4.8619647 
4.51589918 3.82988811 4.17785454 5.04806709 3.75458217 4.57923174 4.09336996 6.02954626 2.63444519 
2.38802886 2.78802681 2.81730318 2.72071695 2.72950292 3.1620903 2.62082911 1.98338485 3.67625403 
3.50804138 3.01229882 2.9290576 2.49872971 2.14708877 11.7384901 10.6249352 2.86381054 4.34641457 
3.6661315 3.50683117 4.22735453 3.1719687 2.38859153 4.18732262 4.91992521 3.42192364 3.99100804 
4.15778255 2.95444846 2.87964773 3.08592606 6.62012148 6.60820723 6.09490156 5.93346882 4.29125023 
4.95076752 4.4343462 4.23555326 5.1207118 5.50305796 3.53038669 3.68791008 4.0939846 3.31885076 
3.43762946 2.75395346 2.81260848 1.20232213 1.1795969 2.63038445 3.04655194 1.1646862 1.54811037 
1.46533191 3.44382048 3.4642458 4.24759865 2.97172642 1.98444664 1.85894012 5.45732784 3.51394486 
2.28545427 2.06527734 1.32364452 1.61316919 1.77703488 1.63630152 1.69740796 1.77837312 1.85519421 
4.28021812 3.55862141 3.01101589 3.35136485 2.57973766 2.08630276 2.062217 7.21177244 5.4766531 
6.51299191 6.73137522 6.79956675 3.0515976 2.83907676 7.19246864 7.55851889 7.31510067 9.42734528 
8.84186268 6.11909914 5.52067089 5.74727726 6.20774984 5.87037563 6.51607704 6.55587053 7.16935015 
6.0171566 5.18373966 6.80964565 6.64714479 7.0686636 6.04879522 5.7562871 6.98413754 6.67650223 
5.99374199 5.16291761 5.11317825 4.4488554 4.97504473 5.38285732 7.82617474 1.87194395 3.23779082 
5.35353184 11.3120718 10.5685387 0.916636527 2.02409959 2.39056563 2.35139966 2.19200206 2.53246975 
2.30378079 2.25962424 6.27264261 3.42168069 4.11040688 5.34643936 2.40942764 2.63793731 2.49541163 
2.5874536 2.08790016 2.23624063 1.99974382 1.79646158 2.87507176 3.29095078 3.45501137 1.16844261 
1.3458941 1.1496923 1.23731279 2.24351192 2.09643936 1.88600945 3.74270391 2.59687781 2.34803009 
2.47119594 2.96509624 2.59961438 4.41935253 3.57956553 3.62267303 3.83163381 4.36139154 4.30394316 
4.15832853 4.44239616 4.48894882 4.40417099 2.60979915 2.45849323 4.48627234 2.11540866 2.19144726 
1.26264703 1.00035405 0.834973335 6.50385427 0.624394774 0.585722029 0.866345882 1.34557617 1.11463392 
0.728737652 1.48942101 0.907151163 0.915671527 1.31727266 0.617012322 1.96484721 2.38144684 2.21007609 
2.42148685 2.17640114 2.26623631 1.86948478 2.22154927 1.96844196 1.80958104 1.73406744 1.72347867 
1.78260088 1.82028866 2.14230347 2.08725119 2.52566481 2.97331619 3.24423194 3.18843985 3.27734184 
1.65669906 1.59890807 1.56941247 0.77276969 1.27137995 1.47299981 1.54584432 1.50435853 1.70046508 
1.98855948 2.13069654 1.574929 1.6253227 2.33607078 2.46075249 2.46608877 2.60168815 2.62519312 
1.87666094 1.62850547 1.84976947 1.6623888 1.43198276 2.60942721 2.29836035 0.564426363 0.567789257 
1.38874543 1.75280011 1.65474844 1.63186467 1.7348783 1.7086488 1.74162233 1.57426929 1.72817099 
1.52788532 1.58620512 1.62216926 1.50300348 2.11047387 1.59572828 1.43003631 1.08298767 3.15736413 
3.63938761 2.94747424 4.05877304 4.33536386 4.63134003 4.91407061 2.35253072 3.66428447 2.88455439 
3.10392642 3.3834939 2.84844208 3.73425388 3.26933193 2.7775259 2.767869 2.37725019 2.40252805 
1.89919436 1.62906969 2.279248 2.54179192 2.06466556 2.82794452 2.2431376 2.98524141 2.34075713 
2.06537867 1.75976551 1.71243083 3.36155605 3.03642702 3.26751733 2.90037227 2.94017553 3.15566778 
3.1307857 2.99262834 5.28297424 5.08309269 4.70342064 5.20890236 5.08280849 5.51793337 5.74922228 
6.27019501 3.37533021 3.27837658 2.73225641 3.09815121 2.80580449 2.52895141 3.08043075 2.61443567 
3.5048368 3.22320437 3.64081717 2.75287795 1.40686023 1.79917955 2.54046226 2.75759125 2.30988216 
2.70870924 2.18621182 2.30359387 3.18186855 3.11013746 2.93658233 3.24376106 3.65351367 4.39084101 
4.9747591 4.59546709 5.08361053 4.92469931 5.14970446 4.35515738 4.24783182 3.48515463 4.88852167 
4.65928316 3.79348373 4.37531185 3.9087944 4.27634096 3.72494769 3.64032078 3.30415034 3.56194806 
3.90867567 4.76698637 4.4639554 3.62161851 3.66975045 4.44459963 3.99241161 4.21104383 4.84551048 
5.14021444 5.47082376 3.539814 3.50803876 3.82406139 5.22426414 4.58709621 4.81527996 5.24839926 
5.32286406 5.36497021 4.47390175 5.26773167 4.93708372 1.5020988 1.38173664 1.70912135 1.41234982 
3.36168098 2.54954076 2.48850369 5.22968769 2.81574631 3.56332278 5.29444027 3.49690294 2.73005652 
2.74670744 1.12293279 1.10356152 1.09384871 1.1106776 1.16172516 1.25504196 1.24575758 1.47384453 
1.25130212 1.52610207 1.0737623 1.1463412 1.13701999 1.07175398 1.0908618 1.13411784 1.28651011 
1.18079567 1.24622285 1.38557315 1.2114805 1.54226708 2.08210039 1.40178525 1.51350915 1.40757859 
1.45785797 1.6000129 1.416996 1.45527411 1.35653961 3.41424656 3.65539145 2.2410965 1.8114723 
1.58615124 1.67640674 1.75833428 1.61157429 1.55841279 1.67768526 1.71957123 1.56644952 1.54825246 
1.7082864 3.19422555 5.69818306 4.82657337 6.47059441 6.85921383 3.87192583 4.40208721 3.20125818 
3.88433671 4.32863474 3.59113526 3.97342968 2.8213594 2.64151525 1.15328181 2.74374938 1.85395598 
1.70569515 2.35133314 0.687652349 4.73250008 4.62490988 4.61656857 9.32982159 3.06509662 3.97808695 
4.39408207 4.06930733 2.00070548 3.18065095 0.28057608 0.210695729 0.5715518 0.595922709 0.822160959 
0.294527918 0.403205395 1.16142881 1.08090401 0.793022633 0.697465897 1.12237978 1.17833805 0.844015002 
1.15687001 2.88537979 3.49812818 1.52956498 2.1111176 2.97548413 1.24147677 1.47880852 2.20057416 
1.89199686 1.69134259 1.53484225 3.31972432 3.25434232 3.73064065 3.6279974 3.32535911 2.95622444 
2.79945564 2.62627363 2.87343407 3.12533689 3.0840528 3.09297824 3.23251987 3.09826732 1.32031941 
0.990522146 1.07750106 1.3692838 1.66817951 2.68018627 1.91466653 2.32760978 2.07073379 2.29407406 
2.89279199 2.62127519 2.95763779 3.83764863 4.07989836 1.14912164 1.16711414 1.43885195 2.56935382 
1.27859104 3.72285771 1.60062218 1.90254736 2.31702733 2.73939443 1.50740612 1.21462595 0.886388898 
1.09448969 2.15465188 3.18116975 2.65400791 3.64582825 3.17386389 4.03420162 1.42488468 2.28416634 
2.62374449 3.2514267 3.68293619 3.12061167 2.97760081 3.59826851 1.20521867 3.19079804 3.40025091 
3.29184079 1.11657894 2.82900429 2.60068965 3.50699329 4.48422575 5.30799246 4.62883902 3.41544271 
3.83163142 3.8023622 3.70962882 3.76448488 4.11296177 3.59664464 2.94384384 2.93819737 3.56630039 
2.97472858 3.01540518 3.33277893 2.82730699 3.5856266 2.65959573 2.62280941 1.39777493 1.34731698 
2.61723471 2.54203701 1.39248717 1.35743546 3.67833543 3.82344246 3.75799036 3.41103578 3.2237792 
1.13949072 1.47032678 1.13009036 3.00152349 3.02632928 2.8636384 2.482476 2.06057024 2.26561713 
2.62156463 2.8257618 1.70372462 1.90287411 1.85042524 1.69011235 1.87955832 2.12420797 2.32233977 
2.76774716 3.05957174 2.64319682 3.17175078 3.22922087 3.05146146 3.25344586 2.05847406 2.72724056 
2.91741467 3.18446183 2.41739106 2.9515655 4.7024641 4.9240284 4.16634655 4.12629509 4.0764513 
3.31881809 3.31667376 2.67484355 2.69240975 3.25512075 2.43694639 4.13417721 3.68644094 3.47979164 
3.37757134 3.18464446 3.7206893 3.58024287 0.660911918 0.720789313 0.650456727 0.671541691 0.714331925 
0.701722682 0.612687528 3.59281898 2.88469648 1.98077583 1.27329147 1.37352014 3.29713464 3.68709636 
3.17140341 1.82804859 2.12152791 2.75610328 1.31561339 1.73299062 1.32178438 2.15133572 0.323729932 
0.121005073 0.44372648 0.871186137 1.34811413 1.27109098 1.25096309 1.41076255 1.61186004 1.74438357 
2.09849048 1.89673877 1.88487935 2.03546548 1.92543459 1.9617492 1.86872351 2.07001185 1.91423392 
1.57733011 1.18690169 1.32974482 1.71102643 0.940918863 1.11742783 0.915426731 1.96657693 1.28914857 
1.62197959 2.29021692 2.30324912 0.864650607 1.13941264 0.769279778 0.728020608 0.763359785 0.730800748 
0.779479325 0.816405356 0.9889974 2.25310373 1.39797378 1.596699 1.05892086 2.32157636 1.85725892 
1.42343402 1.79570532 1.78797543 1.81127596 3.84557581 3.53399324 2.77279782 3.254179 3.34469962 
3.30956984 3.14883518 3.27607131 3.37304568 3.37829876 3.38566089 3.40048981 3.29307246 3.06847405 
3.17641306 3.06310463 3.28456545 3.41247487 3.3520546 3.14442301 3.04030013 3.06207418 3.15623546 
3.01769781 2.47274661 2.44394159 2.76374698 3.11397386 2.28217888 2.25741267 1.73037267 2.08443046 
2.26860714 2.21928596 2.37538338 2.15062714 2.45616508 3.18295002 3.17521429 3.14729929 3.16978288 
2.47540355 2.72019577 2.92166519 2.85685682 1.46807051 1.66431487 2.06102538 2.8449831 2.49130869 
2.47943401 2.53471828 1.27993369 1.45952857 1.07986975 1.08761561 1.21537817 1.07877624 1.04960978 
1.03950787 1.17736614 1.16500258 1.18177664 1.08544195 1.05379379 1.1018616 2.32534647 2.23643947 
2.48842168 1.97648799 1.25377977 1.39059711 1.49380648 1.21091664 0.791531861 0.705990851 0.881918728 
0.418123037 0.615914226 0.609957159 0.869973004 0.759920537 0.926483095 1.01312375 0.589457393 0.730070651 
0.736463249 2.90338659 2.38854432 2.28718495 1.42126596 1.57036519 5.5952096 3.47277999 4.25860214 
4.76957989 5.26208162 5.0962863 4.98996973 5.19714403 4.69975567 5.29569578 6.00806665 4.58987713 
4.01471853 4.70593596 4.97989368 4.23252487 4.78936005 4.18446589 4.02244234 3.9729917 3.78264356 
5.22787809 3.16195035 2.89555502 2.95138359 3.21897149 3.66816998 3.59703851 3.42435503 3.6885314 
3.47509003 3.53102112 3.27879071 2.8965075 2.96493149 3.70159769 2.79165053 2.71259379 2.82133174 
3.9610219 5.21047115 3.83753157 2.69462633 2.91994333 3.21949148 1.0894475 1.14627743 1.14201772 
1.30060303 1.27984571 1.34896171 1.54536009 5.41481447 5.92537498 3.8047173 3.30014777 3.65238595 
3.58234334 3.66561437 3.51618266 3.46016216 3.19869256 2.84227204 3.70825529 3.91232944 3.26536202 
2.86918902 2.4089694 1.62393475 1.45185566 2.17151332 2.3759892 1.98373628 1.75087142 2.94225717 
2.28037429 1.86080313 1.66344166 1.46331465 1.69265521 1.31012523 1.39921927 1.7186377 1.73123479 
1.23582983 1.25247157 3.64487529 3.73721075 3.77002811 2.43762898 2.84328413 2.04586554 12.2554722 
10.5209141 7.7733016 11.2504444 0.329866886 1.03117812 0.670348525 1.30062068 1.1710645 1.81340802 
0.653083742 0.826253235 3.25633073 3.15174007 3.03692389 3.33837962 3.1885581 3.87226439 5.93660069 
6.66691446 6.73080587 4.28691006 5.31976938 5.60615587 4.79484463 3.4884088 3.15617561 3.16835189 
3.05518174 2.7011745 2.95807767 2.29751253 2.51634121 1.89323211 1.9503541 2.18474197 2.71393681 
2.02356529 2.28314304 3.16115022 3.21787906 1.80235159 1.54214275 1.65033615 2.78715491 2.36637402 
2.42570424 3.78060365 4.75588512 2.90094662 1.33304989 1.59676147 1.38498628 1.3749032 1.48823977 
1.70145702 1.3446244 1.39598501 1.22338498 1.41757393 0.84914726 0.901681244 0.834549129 0.818983972 
0.918806374 1.04824114 1.13191545 1.06341481 0.970620453 0.818302572 1.1896987 2.49751806 2.46955562 
2.44772053 3.57802796 1.73672962 1.869609 2.15263319 2.0768683 2.24555516 2.34086347 1.75006378 
2.11706018 2.46019602 1.92998767 2.59038162 2.56484675 1.46096861 1.24277687 1.11253822 1.05035126 
0.578208387 0.414550871 0.255292147 0.523435295 0.265795767 0.605298638 0.510345995 0.681004286 0.930775225 
0.874689043 0.926533043 0.841570616 0.77584064 0.975000203 0.958517969 1.21101797 1.04767811 1.2662375 
2.3913672 2.3494401 2.30345154 2.14755154 2.49669099 2.58038807 0.897790492 0.894135714 0.969934523 
1.04571891 0.854061365 0.941741168 1.03536165 0.865845859 0.840088427 0.819471538 0.851650894 0.888406992 
0.937290132 0.996632516 0.967976213 4.78864908 5.2686801 6.33978653 5.09756088 6.8704915 6.67593479 
2.87623215 3.310673 3.36849499 4.37027693 4.3850503 3.88873982 3.8943975 3.41809535 4.89674044 
5.25256014 4.10875034 5.3908329 4.63673592 4.44301653 5.03750038 4.73077536 5.04333305 5.16507101 
1.87522078 1.95031166 3.73592734 4.08837318 4.71431398 2.52563953 3.36793995 3.12603951 2.69873333 
3.00854445 3.14369392 1.24736416 1.78806055 2.22648907 2.26879621 2.93817735 3.32141066 3.48385978 
1.66963315 1.57698214 3.36482573 3.42193556 2.53472733 2.50006843 2.9284637 2.68096209 3.12589645 
3.11680603 3.21586943 3.38676095 3.25468612 2.9641068 3.28896737 3.51755786 2.81324434 3.30810928 
2.32244086 2.02839184 2.55260849 1.79951549 1.82553959 1.17743003 2.70155025 3.34209156 2.94011712 
3.04089308 3.12088132 3.21238065 3.37218928 3.27509952 3.25358629 3.14999294 4.05563402 4.57351589 
3.2377069 3.44907784 3.68098783 3.29994583 4.00289392 3.95160079 3.82909799 3.49587393 4.44561243 
4.03163195 4.08842564 3.65678883 3.44526291 3.11779714 3.84100008 3.50436568 3.04677224 2.68174887 
3.43516159 3.72031879 3.21471834 3.51228952 3.32882237 3.3374114 3.26001978 3.24199629 3.34653115 
3.37107611 3.23735332 3.45640635 3.05926394 3.8095746 3.94464827 3.51391602 3.64684153 3.82604647 
3.79455233 3.98659515 3.25307107 3.22528648 3.41602087 3.42653108 3.28243589 3.12938285 2.70521855 
3.16623378 2.34647822 2.40095925 2.43700075 2.75950837 2.25001597 2.40910459 2.38078356 2.9960475 
2.47123456 2.0646801 2.97220588 2.46046734 2.12516212 2.78458142 2.75131965 2.34324241 2.9421308 
2.71210456 2.83620858 2.45888782 3.09442186 3.38078642 3.94981074 2.87781715 3.25670671 2.52263045 
2.66910958 3.50057459 3.73249269 3.61508679 3.39233208 3.66490912 3.83468246 3.07758904 3.38172579 
2.91775966 2.90860438 2.90543866 3.03174663 2.52217245 2.42939663 2.59861803 2.34694195 2.81284976 
2.68563986 2.45523643 2.49235439 2.71584344 2.12762141 2.44376421 2.92956305 3.09960485 2.88013554 
3.21814823 2.90570283 3.03828907 3.49923587 3.7988565 0.552860737 0.440387577 0.54931879 0.457864285 
1.01926446 1.07581162 1.02055621 1.06713474 1.15591502 1.26512885 1.53968501 1.34870529 1.11250007 
0.351020545 0.615095019 3.36428261 1.76681781 1.5769546 1.34911036 2.3032999 2.81355071 2.76824021 
3.08220363 1.27722061 1.23364949 1.15818346 1.50159979 2.73303461 2.72487783 2.90073919 3.24411964 
3.17980242 2.70079255 2.8355577 2.80849648 1.34763539 1.37580073 1.37995708 1.32006764 1.61196148 
1.53693211 1.73174608 1.67370951 1.53402853 1.70570672 1.68524015 2.30668163 2.40208316 2.32598114 
1.44889426 1.38294375 1.23969042 1.50460374 1.63308287 1.51033962 1.52832615 1.56365335 4.79060173 
4.43290472 3.38665867 2.44493604 2.28230596 2.8494575 2.05932879 1.67585278 1.52290118 1.86084628 
1.45604646 1.15697122 1.17497671 0.460115373 0.596298516 0.608441234 1.49710882 1.29070604 0.765588224 
1.76871157 1.62231135 1.40794992 1.26736581 0.822386682 1.08040452 0.995016456 1.7635113 0.277781963 
0.344426244 0.448068619 0.269795537 0.348836929 0.280436516 0.263061315 0.339749187 0.268855274 0.33057186 
0.458717406 1.17108929 1.49159443 0.339074194 0.273700982 0.469302684 0.639970958 0.871546507 0.663787782 
0.789615393 5.2536006 3.63646126 3.35289907 3.19274163 3.61952209 4.28880739 4.37633038 2.49558854 
3.68941498 3.59404135 3.19800806 3.41137242 3.54389429 2.88319302 3.3256855 3.0326457 2.96833897 
2.72053289 2.88578224 3.03206825 3.18197489 3.13050795 3.37603879 3.47381878 3.21427274 3.6304462 
3.28938007 3.69593263 2.06603384 2.32751274 3.54676151 3.57239366 3.59186029 2.73562813 4.28719187 
4.12810183 3.72810698 4.13118076 4.18309832 3.88970447 3.7005651 3.89681244 3.51437116 3.97143269 
1.18402302 1.46996236 1.39148724 1.79986227 2.51252127 2.03589535 3.93270946 3.618325 2.04696012 
1.81184161 1.92563474 3.78024793 3.47627306 1.7819618 0.745397925 0.886660039 1.00402129 0.380529612 
0.690701127 2.40681386 0.892841339 1.03567588 3.33258295 3.31732798 5.00497627 5.59616947 6.23855782 
11.3688154 1.89574802 2.97931314 2.80703855 4.7758112 5.05749893 5.31851435 8.06789589 7.30576992 
6.55017233 5.43019867 6.08182859 6.7490077 5.87382698 5.11310291 7.15629482 7.30093479 4.46516132 
3.95984745 4.31360102 4.9999938 4.68176413 1.51613522 3.25564885 4.6316371 3.54176998 4.23675251 
10.7985048 4.24343681 7.34341097 5.06730318 5.81916475 6.68207884 7.22963667 4.28498363 4.56321812 
4.33491278 4.638062 4.01669598 4.58568048 4.59269857 8.51074791 8.08433056 7.57338381 7.24091673 
5.16587162 5.21266985 4.9374361 5.16684914 4.63773155 4.43376064 6.27188301 5.44072628 6.79636097 
5.89272165 6.39889479 2.88125324 3.23413372 3.16910958 4.19338512 1.36089683 1.54814959 1.86333132 
2.56457233 2.11031747 1.36066008 1.91436124 1.8276794 1.63736451 3.97675776 2.72326541 1.65193748 
2.86933947 2.53647327 2.53397727 2.64794898 2.68751454 2.76719761 2.73120856 2.70606875 2.64745402 
2.45654798 2.62758183 2.64313436 2.09923148 2.41702318 1.82821202 2.90271854 2.89580679 2.54121828 
2.5021131 1.4131031 1.33513618 1.30152047 1.59778321 1.50654185 1.94789338 1.68579209 1.64677441 
3.10205269 0.758924067 0.923322916 0.955334783 0.718357086 0.56591481 1.8967644 2.03000426 1.79438186 
1.93130088 2.10487056 2.15828133 1.54697061 1.32186615 1.60729325 1.83893788 1.79565072 1.18961334 
1.13607538 1.09628403 1.37479639 1.32948959 1.42777097 1.41609824 2.18388009 1.68404639 0.633170426 
0.50034219 1.12006724 0.668758154 0.703224897 0.577824235 0.821493447 0.961466193 1.57443738 1.46834123 
1.14764988 1.30227387 3.77781224 2.91676474 2.82527733 2.59216309 2.18345904 1.93082869 2.67107248 
2.33711052 2.51957369 2.13309193 2.39383435 3.62855673 3.77525496 3.92410278 3.65644956 3.45188522 
3.44421053 2.59873939 4.14464998 1.7452302 1.86038065 1.34091425 1.13080204 1.08717406 1.48532665 
3.01951909 2.36176467 9.11892319 8.47118092 5.33858204 4.36205626 5.3630352 3.60636902 5.42483187 
4.8358016 6.90159416 9.68290806 1.87329698 1.89159691 1.65688431 1.86005199 1.96256363 1.78991497 
2.15283489 1.64588559 1.68555307 1.5499059 2.19910073 2.21873736 1.60787928 2.02366424 1.4585222 
2.50394559 2.72198582 1.32195306 1.22220945 1.4577533 1.5257051 3.93925285 5.22347689 3.09537864 
2.7980845 4.01855373 3.56417465 3.30554891 2.92601371 3.56528997 2.55830097 2.44963384 2.73405027 
3.9076643 2.61902404 2.830832 2.22919512 2.4453218 2.24984288 2.36989307 2.34668589 2.35883927 
2.24504757 3.2469151 2.88102317 2.90869308 3.74048924 1.84248078 0.549434006 0.800714731 1.6998713 
2.71280861 1.82776296 1.54031813 1.61049652 1.38441551 1.99096298 1.22191834 1.18689334 1.39929485 
1.25503826 1.34512746 1.14782274 1.14145231 1.28812027 1.37997806 1.62713063 1.51125336 4.58450174 
4.58565331 4.82766819 5.47236681 4.86225796 5.99201155 6.41849232 6.21174955 6.53107691 3.27415276 
4.25437689 3.43849564 5.34506559 6.35592842 5.50450087 6.24563551 5.19313478 6.34343433 8.10845375 
8.01037121 7.29715872 6.96661854 6.50913906 6.7606678 7.53674126 5.78027678 8.60957909 8.59229183 
7.59689426 3.5420711 2.55095816 4.22682762 3.65748835 6.36207199 5.83114862 5.33548307 4.62475967 
5.44279909 4.82083035 4.28801155 3.28081799 2.97246695 3.09305525 4.80078506 3.58220315 2.11271429 
1.90305662 2.04276109 2.71273971 2.689224 2.78312302 3.17304921 3.18897581 3.03547812 1.96540046 
1.65890741 1.81123376 1.45729029 1.59158909 1.57462311 1.35257113 1.23850238 1.27199352 1.57257044 
2.17606783 1.96051896 1.7627368 1.85342097 1.92082953 1.84504962 1.78858733 1.94598448 2.02849364 
2.10975385 1.21978068 0.902774096 0.908255875 2.5060997 2.87734151 3.18067479 3.34356713 3.51754665 
3.07706976 2.64814043 2.92578459 3.03372359 4.5134325 4.16439724 3.28983021 2.92518663 4.37644196 
2.6327405 1.95809162 2.72895741 5.22315741 6.2086153 6.33263826 5.40024805 4.30579901 5.49774075 
4.31964207 5.3683238 7.89823771 5.88503027 1.49031031 1.38237834 2.30608726 2.81854486 2.86743164 
3.55317688 3.58163309 3.48300219 3.11435223 6.2119503 4.53442049 7.19110441 7.82860613 2.47657347 
2.22138238 1.94181275 2.46096492 2.62569547 1.68982327 1.9015013 1.77100492 1.54003954 1.73350596 
1.50444174 1.65975475 5.94722939 5.23931885 1.46806252 1.63525689 0.780318141 0.922902703 3.11438847 
3.21195245 3.56753588 1.47647727 1.73215795 1.6425339 3.56628156 5.79526567 5.58200359 4.6680131 
4.09434891 5.64713478 4.95385408 7.72976589 3.14976811 10.4544306 1.70249712 1.44074774 1.38417852 
3.12375164 3.20672321 2.95661068 3.25358677 2.90361238 3.8644259 4.05546856 4.23768425 6.83784103 
3.63664842 3.30366111 2.8832829 0.655081332 3.11078548 2.52130985 3.16490912 3.24943829 3.35569334 
3.37300563 3.23425126 3.36772776 3.095963 3.81275916 4.14733076 3.92046714 0.899079084 0.872324824 
0.759716094 2.16965961 2.60013676 2.08134961 2.56618094 1.12164521 1.23039281 1.02515626 2.10154128 
2.42272568 2.62675381 2.64444542 3.32699561 1.57444358 1.30426812 1.43690133 1.17938709 0.472968429 
1.23248792 2.06517887 2.00605488 1.91896498 3.3999877 3.35553861 3.21927905 1.76584375 2.71326399 
2.25977182 3.33884025 0.670737147 0.616685987 0.666658044 3.81542611 3.88171935 3.3805542 2.11251378 
2.55326605 2.90172982 2.35323262 3.38815546 3.0506537 3.46112561 2.98165822 2.99287271 1.10239029 
1.11489666 0.861181974 0.82818383 2.24265361 1.74882066 1.41901088 1.86595356 1.61578548 1.99374926 
1.71725726 1.3970356 1.67381692 1.46885455 1.9337635 0.50178057 4.30717134 2.83265591 3.26140022 
1.37802231 2.93494654 3.54195189 3.36585474 3.26675725 4.69697285 3.60458207 2.54446888 1.5723443 
0.58552146 0.684295177 4.13477564 1.8355211 1.80736804 1.81021273 1.55040932 2.70436192 2.41106987 
8.46334362 6.95157337 8.11606121 10.113493 1.68679917 1.43420899 2.61551189 2.43090916 2.74896359 
2.34767556 2.54886341 2.75313091 4.91596985 5.04482031 3.01076174 2.70123219 5.35233641 4.82222223 
5.36599779 3.31196737 3.16487336 3.77907181 2.7926259 2.57048345 1.15157008 1.24049962 2.76191258 
2.8312695 4.46006203 4.04197788 4.15588808 4.23308516 2.34554434 6.10794878 
